p edge 1581 7877
e 1 2
e 1 16
e 1 49
e 1 71
e 1 5
e 1 29
e 2 3
e 2 25
e 2 86
e 2 100
e 2 60
e 3 4
e 3 34
e 3 127
e 3 17
e 3 86
e 3 133
e 3 156
e 3 160
e 3 161
e 4 125
e 4 28
e 4 127
e 4 181
e 4 217
e 5 8
e 5 71
e 5 131
e 5 32
e 5 120
e 5 170
e 5 191
e 5 215
e 5 220
e 6 127
e 6 44
e 6 75
e 6 138
e 6 193
e 6 232
e 6 200
e 6 223
e 6 236
e 7 16
e 7 76
e 7 140
e 7 35
e 7 89
e 7 126
e 7 177
e 7 201
e 7 224
e 7 191
e 7 230
e 8 79
e 8 43
e 8 94
e 8 139
e 8 151
e 8 188
e 8 242
e 8 249
e 8 170
e 8 207
e 9 21
e 9 33
e 9 87
e 9 166
e 9 203
e 9 220
e 9 230
e 9 252
e 9 254
e 10 104
e 10 86
e 10 152
e 10 221
e 10 232
e 10 253
e 10 255
e 10 256
e 10 165
e 11 19
e 11 53
e 11 83
e 11 60
e 11 161
e 11 236
e 11 244
e 11 261
e 11 265
e 11 267
e 11 172
e 12 47
e 12 51
e 12 101
e 12 157
e 12 227
e 12 269
e 13 23
e 13 127
e 13 100
e 13 45
e 13 178
e 13 253
e 13 187
e 13 257
e 13 283
e 13 285
e 14 18
e 14 49
e 14 109
e 14 64
e 14 198
e 14 249
e 14 220
e 14 258
e 14 290
e 14 297
e 15 273
e 15 302
e 15 311
e 15 211
e 16 125
e 16 71
e 16 260
e 16 149
e 16 201
e 16 242
e 16 280
e 16 319
e 17 28
e 17 74
e 17 110
e 17 156
e 17 206
e 17 283
e 17 316
e 17 324
e 17 219
e 17 287
e 18 27
e 18 73
e 18 208
e 18 249
e 18 284
e 18 319
e 18 326
e 18 154
e 19 123
e 19 86
e 19 134
e 19 217
e 19 293
e 19 301
e 19 334
e 19 335
e 19 236
e 20 30
e 20 129
e 20 153
e 20 247
e 20 303
e 20 341
e 21 147
e 21 29
e 21 82
e 21 306
e 21 319
e 21 344
e 21 352
e 21 174
e 21 230
e 22 71
e 22 154
e 22 252
e 22 297
e 22 328
e 22 354
e 22 357
e 22 274
e 22 318
e 23 36
e 23 70
e 23 181
e 23 322
e 23 156
e 23 253
e 23 330
e 23 355
e 23 360
e 23 363
e 24 167
e 24 310
e 24 343
e 24 378
e 25 34
e 25 44
e 25 155
e 25 335
e 25 267
e 25 348
e 25 376
e 26 45
e 26 199
e 26 255
e 26 339
e 26 169
e 26 270
e 26 350
e 26 377
e 27 85
e 27 180
e 27 284
e 27 332
e 27 305
e 27 354
e 27 403
e 28 104
e 28 84
e 28 355
e 28 404
e 28 405
e 28 283
e 29 120
e 29 201
e 29 306
e 29 358
e 29 437
e 29 289
e 30 93
e 30 51
e 30 303
e 30 395
e 30 381
e 30 430
e 30 438
e 30 440
e 30 182
e 31 123
e 31 136
e 31 291
e 31 382
e 31 439
e 31 441
e 31 200
e 31 304
e 32 43
e 32 220
e 32 412
e 32 421
e 32 468
e 33 58
e 33 135
e 33 423
e 33 463
e 33 469
e 33 252
e 33 310
e 34 69
e 34 110
e 34 418
e 34 476
e 34 480
e 34 161
e 34 226
e 34 335
e 34 436
e 35 71
e 35 112
e 35 230
e 35 337
e 35 437
e 35 470
e 35 477
e 35 325
e 35 421
e 36 148
e 36 262
e 36 330
e 36 342
e 36 482
e 36 486
e 37 64
e 37 239
e 37 446
e 37 478
e 37 263
e 37 375
e 37 434
e 38 76
e 38 122
e 38 352
e 38 483
e 38 378
e 38 437
e 38 493
e 39 332
e 39 379
e 39 494
e 39 150
e 40 75
e 40 119
e 40 152
e 40 218
e 40 333
e 40 439
e 40 496
e 40 240
e 40 350
e 40 482
e 41 155
e 41 221
e 41 334
e 41 441
e 41 496
e 41 169
e 41 244
e 41 353
e 41 453
e 41 486
e 41 499
e 42 273
e 42 335
e 42 443
e 42 246
e 42 456
e 42 499
e 42 172
e 43 52
e 43 249
e 43 462
e 43 492
e 43 501
e 43 274
e 44 69
e 44 164
e 44 236
e 44 348
e 44 456
e 44 508
e 44 510
e 44 364
e 45 70
e 45 165
e 45 238
e 45 283
e 45 350
e 45 459
e 45 510
e 46 71
e 46 471
e 46 505
e 46 512
e 46 166
e 46 284
e 46 352
e 46 400
e 46 463
e 47 65
e 47 153
e 47 340
e 47 386
e 47 454
e 47 487
e 47 519
e 47 520
e 47 269
e 48 85
e 48 140
e 48 259
e 48 379
e 48 446
e 48 483
e 48 357
e 48 470
e 48 521
e 48 528
e 48 289
e 49 260
e 49 447
e 49 358
e 49 529
e 49 170
e 49 290
e 50 84
e 50 138
e 50 291
e 50 360
e 50 473
e 50 523
e 50 530
e 50 531
e 50 257
e 50 377
e 50 482
e 51 141
e 51 381
e 51 475
e 51 534
e 52 77
e 52 478
e 52 494
e 52 529
e 52 535
e 52 297
e 53 88
e 53 481
e 53 496
e 53 531
e 53 195
e 53 265
e 54 147
e 54 391
e 54 483
e 54 497
e 54 533
e 54 176
e 54 422
e 55 151
e 55 276
e 55 400
e 55 469
e 55 504
e 55 539
e 55 305
e 55 378
e 55 434
e 55 492
e 55 546
e 56 204
e 56 279
e 56 402
e 56 507
e 56 541
e 56 554
e 56 381
e 56 498
e 56 553
e 57 101
e 57 173
e 57 294
e 57 371
e 57 487
e 57 551
e 57 292
e 57 415
e 57 485
e 57 524
e 57 550
e 58 67
e 58 159
e 58 284
e 58 478
e 58 503
e 58 521
e 58 558
e 58 318
e 58 389
e 59 322
e 59 393
e 59 523
e 59 560
e 59 211
e 59 283
e 59 408
e 60 86
e 60 195
e 60 267
e 60 324
e 60 399
e 60 510
e 60 412
e 60 557
e 61 97
e 61 166
e 61 286
e 61 528
e 61 558
e 61 568
e 61 325
e 61 511
e 62 199
e 62 273
e 62 330
e 62 404
e 62 523
e 62 419
e 62 532
e 62 563
e 62 571
e 62 287
e 63 89
e 63 423
e 63 494
e 63 533
e 63 564
e 63 573
e 63 197
e 63 328
e 63 403
e 63 462
e 63 521
e 64 73
e 64 170
e 64 297
e 64 434
e 64 501
e 64 538
e 64 572
e 64 468
e 64 583
e 65 186
e 65 320
e 65 394
e 65 454
e 65 517
e 65 449
e 65 513
e 65 577
e 65 578
e 65 313
e 66 115
e 66 520
e 66 551
e 66 579
e 66 580
e 66 183
e 66 315
e 66 452
e 66 516
e 67 94
e 67 447
e 67 512
e 67 478
e 67 539
e 67 587
e 67 592
e 67 213
e 67 343
e 67 422
e 68 303
e 68 444
e 68 540
e 68 553
e 68 588
e 68 593
e 68 595
e 68 345
e 68 424
e 69 218
e 69 293
e 69 436
e 69 549
e 69 600
e 69 601
e 69 244
e 69 312
e 69 456
e 69 561
e 70 221
e 70 296
e 70 355
e 70 439
e 70 601
e 70 246
e 70 316
e 70 459
e 70 563
e 70 597
e 70 604
e 71 79
e 71 319
e 71 463
e 71 529
e 71 564
e 71 601
e 71 220
e 71 354
e 71 437
e 71 492
e 72 98
e 72 247
e 72 464
e 72 554
e 72 565
e 72 598
e 72 603
e 72 606
e 72 222
e 72 299
e 72 440
e 73 122
e 73 188
e 73 326
e 73 469
e 73 535
e 73 573
e 73 601
e 73 357
e 73 445
e 73 501
e 73 558
e 74 104
e 74 119
e 74 360
e 74 448
e 74 560
e 74 601
e 74 610
e 74 187
e 74 324
e 74 467
e 74 571
e 75 107
e 75 232
e 75 302
e 75 563
e 75 612
e 75 616
e 76 125
e 76 471
e 76 504
e 76 564
e 76 614
e 76 230
e 77 87
e 77 198
e 77 332
e 77 478
e 77 546
e 77 572
e 77 586
e 77 613
e 77 618
e 77 511
e 78 114
e 78 205
e 78 341
e 78 490
e 78 596
e 78 621
e 78 628
e 78 381
e 78 472
e 78 588
e 79 113
e 79 559
e 79 623
e 79 627
e 79 249
e 79 380
e 79 529
e 79 587
e 80 102
e 80 235
e 80 520
e 80 581
e 80 634
e 80 635
e 80 227
e 80 366
e 80 514
e 80 578
e 81 136
e 81 476
e 81 590
e 81 600
e 81 643
e 81 646
e 81 211
e 81 265
e 81 348
e 81 499
e 82 140
e 82 120
e 82 214
e 82 352
e 82 502
e 82 601
e 82 477
e 82 591
e 82 626
e 82 645
e 82 389
e 83 123
e 83 138
e 83 393
e 83 480
e 83 594
e 83 601
e 83 629
e 83 646
e 83 648
e 83 212
e 83 267
e 83 350
e 84 253
e 84 482
e 84 597
e 84 649
e 84 653
e 85 124
e 85 505
e 85 574
e 85 483
e 85 539
e 85 638
e 85 651
e 85 252
e 86 127
e 86 144
e 86 255
e 86 335
e 86 404
e 86 601
e 86 510
e 86 612
e 86 649
e 86 656
e 86 219
e 87 147
e 87 126
e 87 512
e 87 584
e 87 601
e 87 614
e 87 651
e 87 254
e 87 403
e 87 493
e 87 546
e 88 128
e 88 256
e 88 339
e 88 405
e 88 496
e 88 604
e 88 616
e 88 653
e 88 656
e 88 661
e 89 149
e 89 224
e 89 521
e 89 586
e 89 658
e 90 130
e 90 406
e 90 499
e 90 661
e 90 662
e 90 364
e 90 617
e 91 526
e 91 655
e 91 611
e 91 668
e 92 103
e 92 231
e 92 373
e 92 529
e 92 592
e 92 659
e 92 263
e 92 410
e 92 558
e 92 613
e 92 666
e 93 141
e 93 537
e 93 636
e 93 522
e 93 621
e 93 670
e 93 678
e 93 277
e 93 356
e 93 430
e 94 109
e 94 242
e 94 380
e 94 539
e 94 601
e 94 572
e 94 622
e 94 672
e 94 680
e 94 274
e 95 148
e 95 282
e 95 439
e 95 530
e 95 629
e 95 545
e 95 649
e 95 679
e 95 684
e 95 248
e 95 388
e 96 167
e 96 249
e 96 390
e 96 546
e 96 680
e 96 583
e 96 625
e 97 145
e 97 391
e 97 547
e 97 651
e 97 681
e 97 685
e 97 281
e 97 437
e 97 528
e 97 626
e 98 303
e 98 397
e 98 554
e 98 644
e 98 654
e 98 692
e 98 698
e 98 374
e 98 534
e 99 152
e 99 448
e 99 646
e 99 169
e 99 399
e 99 684
e 100 156
e 100 285
e 100 376
e 100 649
e 100 557
e 100 686
e 101 269
e 101 427
e 101 524
e 101 577
e 101 631
e 101 694
e 101 420
e 101 624
e 102 137
e 102 271
e 102 428
e 102 525
e 102 578
e 102 632
e 102 694
e 102 695
e 103 559
e 103 688
e 103 286
e 103 592
e 103 651
e 103 705
e 103 154
e 104 652
e 104 690
e 104 175
e 104 253
e 104 404
e 104 560
e 104 660
e 105 158
e 105 377
e 105 453
e 105 653
e 106 585
e 106 640
e 106 428
e 106 579
e 106 635
e 106 671
e 106 701
e 106 702
e 106 269
e 107 291
e 107 543
e 107 710
e 107 312
e 107 563
e 108 293
e 108 382
e 108 544
e 108 710
e 108 316
e 108 566
e 108 713
e 109 260
e 109 574
e 109 627
e 109 601
e 109 659
e 109 709
e 109 717
e 109 162
e 109 297
e 109 465
e 110 556
e 110 721
e 110 723
e 110 414
e 110 677
e 110 713
e 111 168
e 111 473
e 111 560
e 111 723
e 111 419
e 111 679
e 112 423
e 112 681
e 112 716
e 112 470
e 112 558
e 112 722
e 113 587
e 113 651
e 113 729
e 113 305
e 113 613
e 113 672
e 114 184
e 114 266
e 114 430
e 114 588
e 114 683
e 114 720
e 114 733
e 114 737
e 114 475
e 114 673
e 115 157
e 115 288
e 115 460
e 115 551
e 115 664
e 115 694
e 115 727
e 115 731
e 115 455
e 116 188
e 116 435
e 116 685
e 116 477
e 116 568
e 116 675
e 116 722
e 117 480
e 117 676
e 117 723
e 117 187
e 117 270
e 117 433
e 117 684
e 118 665
e 118 699
e 118 735
e 118 457
e 119 175
e 119 311
e 119 406
e 119 482
e 119 571
e 119 679
e 119 726
e 119 739
e 119 686
e 120 139
e 120 191
e 120 275
e 120 437
e 120 591
e 120 687
e 120 728
e 120 740
e 121 276
e 121 592
e 121 729
e 121 618
e 121 680
e 121 309
e 122 688
e 122 730
e 122 483
e 122 573
e 122 619
e 122 681
e 122 741
e 122 174
e 122 310
e 123 690
e 123 193
e 123 278
e 123 335
e 123 439
e 123 594
e 124 280
e 124 659
e 124 622
e 124 742
e 124 318
e 125 623
e 125 743
e 125 319
e 126 146
e 126 201
e 126 284
e 126 601
e 126 666
e 126 687
e 126 708
e 126 742
e 126 748
e 126 325
e 126 625
e 127 181
e 127 327
e 127 418
e 127 690
e 127 601
e 127 744
e 127 750
e 127 751
e 127 200
e 127 283
e 127 348
e 128 425
e 128 589
e 128 693
e 128 710
e 128 751
e 128 753
e 128 202
e 128 350
e 128 453
e 128 604
e 129 204
e 129 606
e 129 712
e 129 746
e 129 429
e 129 698
e 129 182
e 130 590
e 130 753
e 130 353
e 130 456
e 130 713
e 131 151
e 131 463
e 131 716
e 131 503
e 131 591
e 132 205
e 132 458
e 132 608
e 132 714
e 132 747
e 132 506
e 132 593
e 132 706
e 133 333
e 133 436
e 133 612
e 133 766
e 133 287
e 134 334
e 134 439
e 134 710
e 134 616
e 134 766
e 134 769
e 135 214
e 135 469
e 135 711
e 135 722
e 135 511
e 136 190
e 136 335
e 136 441
e 136 600
e 136 713
e 136 724
e 136 769
e 136 772
e 136 617
e 137 637
e 137 701
e 137 767
e 137 314
e 137 489
e 137 632
e 137 697
e 138 193
e 138 339
e 138 443
e 138 523
e 138 601
e 138 726
e 138 757
e 138 772
e 138 774
e 138 364
e 139 298
e 139 619
e 139 685
e 139 729
e 139 715
e 139 760
e 140 471
e 140 730
e 140 601
e 140 716
e 140 761
e 140 773
e 140 191
e 140 337
e 140 521
e 141 300
e 141 621
e 141 720
e 141 777
e 141 779
e 141 345
e 142 199
e 142 530
e 142 610
e 142 723
e 142 739
e 142 772
e 142 219
e 143 479
e 143 741
e 143 773
e 143 197
e 143 528
e 143 722
e 144 200
e 144 350
e 144 456
e 144 532
e 144 612
e 144 726
e 144 781
e 144 787
e 145 167
e 145 224
e 145 306
e 145 483
e 145 626
e 145 704
e 145 742
e 145 775
e 145 782
e 145 728
e 146 627
e 146 705
e 146 729
e 146 776
e 146 351
e 146 666
e 147 730
e 147 743
e 147 785
e 147 201
e 147 352
e 147 533
e 147 614
e 147 667
e 148 629
e 148 744
e 148 778
e 148 786
e 148 789
e 148 223
e 148 304
e 148 376
e 148 482
e 149 638
e 149 709
e 149 354
e 149 672
e 150 171
e 150 231
e 150 494
e 150 749
e 150 783
e 150 538
e 150 618
e 150 675
e 151 539
e 151 619
e 151 207
e 151 795
e 152 232
e 152 311
e 152 646
e 152 750
e 152 786
e 153 758
e 153 186
e 153 520
e 153 794
e 154 319
e 154 497
e 154 651
e 154 717
e 154 357
e 154 680
e 154 742
e 155 496
e 155 648
e 155 751
e 155 789
e 155 236
e 156 360
e 156 543
e 156 744
e 156 316
e 156 649
e 156 790
e 156 803
e 156 805
e 157 340
e 157 609
e 157 524
e 157 664
e 157 732
e 157 799
e 158 363
e 158 473
e 158 544
e 158 653
e 158 323
e 158 388
e 158 805
e 158 806
e 159 505
e 159 761
e 159 215
e 159 626
e 159 809
e 160 476
e 160 750
e 160 240
e 160 324
e 160 803
e 161 217
e 161 480
e 161 751
e 161 244
e 161 399
e 161 656
e 161 766
e 161 814
e 161 805
e 162 180
e 162 329
e 162 659
e 162 729
e 162 687
e 162 811
e 163 401
e 163 507
e 163 657
e 163 752
e 163 374
e 163 642
e 163 812
e 163 815
e 164 218
e 164 481
e 164 556
e 164 643
e 164 753
e 164 246
e 164 508
e 164 661
e 164 769
e 164 814
e 164 806
e 165 221
e 165 560
e 165 646
e 165 510
e 165 662
e 165 772
e 165 248
e 165 808
e 166 512
e 166 773
e 166 220
e 166 375
e 166 558
e 166 645
e 166 809
e 167 667
e 167 741
e 167 776
e 167 378
e 167 704
e 167 760
e 168 652
e 168 406
e 168 523
e 168 778
e 168 822
e 168 813
e 169 232
e 169 499
e 169 571
e 169 772
e 169 781
e 169 831
e 169 817
e 170 188
e 170 529
e 170 745
e 170 783
e 170 572
e 170 711
e 170 819
e 170 833
e 171 785
e 171 384
e 171 573
e 171 773
e 171 230
e 171 820
e 172 236
e 172 656
e 172 774
e 172 412
e 172 787
e 173 641
e 173 758
e 173 551
e 173 691
e 173 269
e 173 361
e 173 799
e 173 828
e 173 830
e 174 344
e 174 533
e 174 681
e 174 749
e 174 658
e 174 715
e 174 775
e 174 389
e 174 825
e 174 837
e 175 393
e 175 660
e 175 778
e 175 342
e 175 414
e 175 532
e 175 679
e 175 790
e 175 839
e 175 840
e 176 259
e 176 352
e 176 685
e 176 782
e 176 837
e 177 260
e 177 783
e 177 241
e 177 586
e 177 666
e 177 722
e 177 838
e 178 786
e 178 257
e 178 350
e 178 684
e 178 803
e 178 839
e 179 245
e 179 515
e 179 589
e 179 789
e 179 261
e 179 353
e 179 433
e 179 840
e 179 805
e 180 688
e 180 729
e 180 403
e 180 841
e 181 690
e 181 792
e 181 262
e 181 355
e 181 436
e 181 543
e 181 845
e 182 264
e 182 356
e 182 440
e 182 548
e 182 698
e 182 810
e 182 856
e 182 801
e 182 849
e 183 233
e 183 387
e 183 579
e 183 665
e 183 823
e 183 848
e 183 851
e 184 707
e 184 411
e 184 599
e 184 683
e 184 861
e 184 864
e 185 235
e 185 582
e 185 725
e 185 791
e 185 576
e 185 854
e 185 826
e 186 585
e 186 228
e 186 578
e 186 827
e 186 855
e 186 857
e 187 253
e 187 413
e 187 601
e 187 684
e 187 557
e 187 808
e 187 850
e 187 865
e 187 817
e 188 559
e 188 601
e 188 685
e 188 745
e 188 252
e 188 820
e 188 809
e 188 853
e 188 866
e 189 735
e 189 292
e 189 392
e 189 731
e 189 799
e 189 863
e 189 862
e 190 418
e 190 453
e 190 561
e 190 713
e 190 867
e 190 870
e 191 280
e 191 564
e 191 716
e 191 783
e 191 687
e 191 421
e 191 825
e 191 868
e 192 279
e 192 372
e 192 562
e 192 714
e 192 536
e 192 689
e 192 424
e 192 861
e 192 812
e 192 871
e 193 425
e 193 690
e 193 456
e 193 563
e 193 813
e 193 870
e 193 872
e 194 458
e 194 565
e 194 719
e 194 429
e 194 540
e 194 692
e 194 829
e 194 864
e 194 873
e 194 815
e 194 871
e 195 255
e 195 610
e 195 831
e 195 865
e 196 464
e 196 569
e 196 611
e 196 698
e 196 834
e 196 873
e 196 816
e 197 284
e 197 379
e 197 573
e 197 722
e 197 703
e 197 837
e 197 868
e 197 874
e 197 818
e 198 574
e 198 258
e 198 434
e 198 613
e 198 704
e 198 795
e 198 838
e 198 869
e 198 875
e 198 819
e 199 723
e 199 283
e 199 377
e 199 571
e 199 822
e 199 839
e 199 870
e 199 876
e 200 262
e 200 439
e 200 549
e 200 726
e 200 877
e 200 879
e 201 730
e 201 437
e 201 708
e 201 760
e 201 825
e 201 841
e 201 878
e 202 441
e 202 710
e 202 734
e 202 879
e 202 882
e 203 584
e 203 263
e 203 618
e 203 875
e 203 833
e 204 738
e 204 442
e 204 554
e 204 712
e 204 264
e 204 885
e 204 834
e 204 881
e 205 266
e 205 444
e 205 555
e 205 621
e 205 714
e 205 885
e 205 836
e 206 448
e 206 556
e 206 739
e 206 287
e 206 388
e 206 839
e 206 877
e 207 231
e 207 587
e 207 622
e 207 715
e 207 809
e 207 889
e 208 391
e 208 741
e 208 445
e 208 878
e 208 837
e 209 417
e 209 697
e 209 754
e 209 887
e 210 609
e 210 702
e 210 314
e 210 415
e 210 607
e 210 754
e 210 828
e 210 890
e 210 891
e 210 826
e 210 862
e 211 273
e 211 721
e 211 846
e 211 882
e 211 896
e 212 278
e 212 629
e 212 723
e 212 850
e 212 886
e 212 896
e 213 239
e 213 298
e 213 400
e 213 592
e 213 745
e 213 274
e 213 625
e 213 843
e 213 852
e 213 889
e 213 897
e 214 275
e 214 626
e 214 722
e 214 853
e 214 898
e 215 242
e 215 728
e 215 819
e 215 900
e 216 300
e 216 402
e 216 596
e 216 747
e 216 733
e 216 642
e 216 861
e 216 844
e 216 894
e 216 902
e 216 904
e 217 301
e 217 405
e 217 751
e 217 845
e 217 906
e 218 302
e 218 406
e 218 496
e 218 600
e 218 753
e 218 906
e 218 867
e 218 910
e 219 283
e 219 467
e 219 649
e 219 739
e 219 850
e 219 899
e 219 907
e 220 249
e 220 306
e 220 601
e 220 468
e 220 650
e 220 740
e 220 833
e 220 868
e 220 900
e 220 908
e 221 652
e 221 601
e 221 304
e 221 408
e 221 499
e 221 870
e 221 903
e 221 910
e 221 911
e 222 307
e 222 500
e 222 603
e 222 860
e 222 871
e 222 904
e 223 473
e 223 744
e 223 757
e 223 912
e 224 761
e 224 470
e 224 742
e 224 838
e 224 913
e 225 269
e 225 452
e 225 632
e 225 731
e 225 788
e 225 848
e 225 916
e 225 883
e 225 915
e 226 476
e 226 589
e 226 312
e 226 414
e 226 769
e 226 867
e 226 931
e 227 454
e 227 634
e 227 732
e 227 624
e 227 917
e 227 847
e 228 272
e 228 635
e 228 854
e 228 887
e 228 917
e 228 918
e 229 637
e 229 735
e 229 791
e 229 449
e 229 630
e 229 788
e 229 855
e 229 920
e 229 851
e 229 888
e 229 919
e 230 319
e 230 423
e 230 614
e 230 773
e 230 477
e 230 658
e 230 748
e 230 289
e 230 878
e 230 913
e 230 868
e 230 929
e 231 478
e 231 659
e 231 749
e 231 290
e 231 914
e 231 809
e 231 869
e 231 930
e 232 291
e 232 480
e 232 590
e 232 660
e 232 750
e 232 316
e 232 419
e 232 508
e 232 612
e 232 772
e 232 870
e 232 931
e 232 933
e 232 877
e 232 912
e 233 640
e 233 736
e 233 268
e 233 450
e 233 632
e 233 854
e 233 858
e 233 890
e 233 922
e 234 641
e 234 336
e 234 452
e 234 633
e 234 859
e 234 891
e 234 922
e 234 923
e 235 271
e 235 454
e 235 635
e 235 791
e 235 794
e 235 924
e 235 925
e 235 857
e 235 893
e 236 293
e 236 481
e 236 594
e 236 751
e 236 510
e 236 616
e 236 774
e 236 323
e 236 872
e 236 933
e 236 879
e 236 934
e 237 461
e 237 455
e 237 798
e 237 862
e 237 895
e 237 928
e 237 793
e 238 296
e 238 753
e 238 617
e 238 882
e 238 934
e 239 297
e 239 666
e 239 875
e 239 930
e 240 600
e 240 781
e 240 877
e 240 941
e 241 259
e 241 329
e 241 783
e 241 491
e 241 759
e 241 852
e 241 937
e 241 818
e 242 260
e 242 623
e 242 492
e 242 672
e 242 760
e 242 853
e 242 938
e 242 819
e 243 526
e 243 621
e 243 784
e 243 673
e 243 764
e 243 894
e 243 939
e 244 301
e 244 496
e 244 601
e 244 766
e 244 787
e 244 879
e 244 941
e 244 943
e 245 441
e 245 530
e 245 789
e 246 302
e 246 499
e 246 604
e 246 677
e 246 769
e 246 882
e 246 943
e 246 945
e 247 792
e 247 303
e 247 500
e 247 606
e 247 678
e 247 771
e 247 885
e 247 936
e 248 304
e 248 679
e 248 772
e 248 886
e 248 899
e 248 945
e 249 447
e 249 627
e 249 305
e 249 501
e 249 680
e 249 795
e 249 866
e 249 938
e 249 946
e 249 833
e 249 889
e 250 636
e 250 506
e 250 611
e 250 683
e 250 777
e 250 802
e 250 905
e 250 942
e 250 950
e 250 894
e 251 294
e 251 488
e 251 671
e 251 767
e 251 827
e 251 890
e 251 823
e 251 887
e 251 928
e 251 954
e 251 955
e 252 276
e 252 344
e 252 463
e 252 651
e 252 687
e 252 782
e 252 318
e 252 511
e 252 809
e 252 875
e 252 913
e 252 843
e 252 900
e 252 951
e 252 957
e 253 322
e 253 515
e 253 690
e 253 786
e 253 342
e 253 459
e 253 649
e 253 903
e 253 952
e 253 958
e 253 808
e 253 912
e 254 352
e 254 469
e 254 325
e 254 703
e 254 908
e 254 929
e 254 957
e 254 962
e 255 327
e 255 350
e 255 467
e 255 910
e 255 931
e 255 958
e 256 353
e 256 656
e 256 911
e 256 933
e 257 330
e 257 530
e 257 803
e 257 912
e 257 959
e 257 964
e 257 969
e 257 817
e 258 284
e 258 659
e 258 819
e 258 889
e 258 965
e 259 471
e 259 328
e 259 528
e 259 708
e 259 820
e 259 913
e 259 960
e 259 966
e 259 852
e 260 329
e 260 529
e 260 709
e 260 914
e 260 967
e 260 853
e 261 531
e 261 629
e 261 710
e 261 557
e 261 805
e 261 969
e 262 561
e 262 971
e 262 972
e 263 286
e 263 358
e 263 478
e 263 666
e 263 833
e 263 897
e 263 937
e 263 965
e 264 565
e 264 669
e 264 536
e 264 644
e 264 834
e 264 940
e 264 981
e 264 810
e 264 932
e 264 974
e 265 334
e 265 646
e 265 933
e 265 941
e 265 969
e 266 569
e 266 670
e 266 540
e 266 647
e 266 720
e 266 836
e 266 942
e 266 970
e 266 981
e 266 986
e 266 812
e 267 335
e 267 648
e 267 721
e 267 364
e 267 814
e 267 934
e 267 943
e 267 988
e 268 320
e 268 518
e 268 699
e 268 798
e 268 854
e 268 916
e 268 919
e 268 978
e 268 979
e 268 847
e 269 520
e 269 701
e 269 694
e 269 313
e 269 799
e 269 855
e 269 981
e 269 848
e 269 917
e 269 954
e 270 339
e 270 723
e 270 988
e 270 945
e 271 702
e 271 392
e 271 513
e 271 695
e 271 800
e 271 857
e 271 922
e 271 981
e 271 851
e 271 918
e 271 955
e 272 315
e 272 514
e 272 697
e 272 859
e 272 924
e 272 854
e 272 920
e 272 956
e 272 982
e 272 983
e 273 677
e 273 975
e 273 989
e 273 994
e 274 297
e 274 492
e 274 680
e 274 843
e 274 908
e 274 990
e 275 298
e 275 681
e 275 728
e 275 951
e 275 991
e 275 818
e 276 729
e 276 343
e 276 546
e 276 909
e 276 875
e 276 938
e 276 980
e 276 992
e 277 372
e 277 490
e 277 678
e 277 733
e 277 345
e 277 842
e 277 950
e 277 981
e 277 821
e 277 939
e 277 993
e 278 679
e 278 822
e 278 952
e 278 994
e 279 655
e 279 347
e 279 553
e 279 942
e 279 996
e 279 999
e 280 914
e 280 825
e 280 998
e 281 379
e 281 502
e 281 685
e 281 740
e 281 957
e 281 991
e 282 377
e 282 684
e 282 948
e 282 958
e 282 994
e 283 355
e 283 560
e 283 744
e 283 686
e 283 839
e 283 952
e 283 850
e 283 959
e 283 997
e 283 1001
e 284 505
e 284 688
e 284 354
e 284 558
e 284 742
e 284 853
e 284 930
e 284 960
e 284 998
e 284 1002
e 284 837
e 284 889
e 284 951
e 285 360
e 285 750
e 285 510
e 285 388
e 285 958
e 285 865
e 285 964
e 285 1001
e 286 391
e 286 512
e 286 705
e 286 357
e 286 568
e 286 748
e 286 866
e 286 966
e 286 1002
e 286 897
e 286 957
e 287 571
e 287 677
e 287 959
e 288 340
e 288 736
e 288 415
e 288 542
e 288 731
e 288 830
e 288 953
e 288 981
e 288 1004
e 288 1005
e 288 880
e 289 521
e 289 708
e 289 868
e 289 937
e 290 319
e 290 709
e 290 572
e 290 869
e 290 938
e 290 900
e 290 1007
e 291 523
e 291 600
e 291 1009
e 291 1011
e 291 870
e 291 971
e 292 551
e 292 420
e 292 888
e 292 954
e 292 1006
e 292 883
e 293 601
e 293 710
e 293 398
e 293 845
e 293 1011
e 293 872
e 293 972
e 293 1014
e 294 427
e 294 550
e 294 890
e 294 956
e 294 1010
e 295 401
e 295 526
e 295 603
e 295 712
e 295 873
e 295 963
e 295 974
e 295 1013
e 295 1017
e 295 849
e 296 604
e 296 713
e 296 975
e 296 1014
e 296 1018
e 297 326
e 297 529
e 297 717
e 297 583
e 297 759
e 297 875
e 297 946
e 297 908
e 297 965
e 297 1007
e 297 1015
e 298 718
e 298 760
e 298 947
e 298 980
e 298 1016
e 298 852
e 299 402
e 299 527
e 299 606
e 299 714
e 299 374
e 299 764
e 299 981
e 299 856
e 299 968
e 299 1008
e 299 1017
e 299 1019
e 300 588
e 300 861
e 300 970
e 300 1020
e 300 1023
e 301 589
e 301 690
e 301 612
e 301 972
e 301 1024
e 301 1025
e 301 879
e 302 590
e 302 693
e 302 616
e 302 724
e 302 867
e 302 975
e 302 1025
e 302 882
e 302 995
e 302 1026
e 303 409
e 303 537
e 303 381
e 303 593
e 303 698
e 303 777
e 303 885
e 303 981
e 303 996
e 303 1020
e 303 1029
e 304 382
e 304 594
e 304 778
e 304 726
e 304 617
e 304 870
e 304 886
e 304 997
e 304 1026
e 304 1030
e 305 332
e 305 539
e 305 729
e 305 889
e 305 957
e 305 1021
e 305 1027
e 306 730
e 306 591
e 306 775
e 306 998
e 306 1028
e 306 868
e 307 383
e 307 595
e 307 706
e 307 779
e 307 986
e 307 999
e 307 1023
e 307 1029
e 307 1033
e 307 871
e 308 738
e 308 385
e 308 780
e 308 1000
e 308 873
e 308 1033
e 308 1038
e 309 422
e 309 546
e 309 897
e 309 962
e 309 1027
e 309 990
e 310 423
e 310 547
e 310 741
e 310 782
e 310 389
e 310 898
e 310 1002
e 310 1028
e 310 874
e 310 991
e 310 1040
e 311 393
e 311 786
e 311 419
e 311 545
e 311 739
e 311 876
e 311 994
e 311 1042
e 311 896
e 311 1001
e 311 1026
e 312 600
e 312 710
e 312 995
e 312 1047
e 313 367
e 313 578
e 313 763
e 313 917
e 313 978
e 313 1035
e 313 973
e 313 1034
e 314 369
e 314 579
e 314 862
e 314 919
e 314 1036
e 314 1037
e 314 915
e 314 976
e 315 371
e 315 580
e 315 767
e 315 455
e 315 863
e 315 920
e 315 981
e 315 916
e 315 977
e 315 1006
e 315 1037
e 316 601
e 316 713
e 316 790
e 316 877
e 316 997
e 316 1047
e 316 1050
e 316 899
e 317 582
e 317 768
e 317 365
e 317 575
e 317 762
e 317 922
e 317 982
e 317 1041
e 317 917
e 317 979
e 317 1039
e 318 343
e 318 742
e 318 900
e 318 965
e 319 743
e 319 601
e 319 901
e 319 967
e 319 878
e 319 938
e 319 998
e 319 1048
e 320 585
e 320 366
e 320 577
e 320 763
e 320 924
e 320 981
e 320 984
e 320 1043
e 320 1044
e 320 919
e 321 457
e 321 578
e 321 765
e 321 925
e 321 985
e 321 920
e 321 1044
e 322 792
e 322 744
e 322 1049
e 322 903
e 323 398
e 323 604
e 323 879
e 323 1050
e 323 1051
e 324 404
e 324 610
e 324 721
e 324 557
e 324 803
e 324 1001
e 324 1047
e 324 907
e 325 351
e 325 437
e 325 558
e 325 748
e 325 908
e 326 559
e 326 403
e 326 909
e 326 946
e 326 1002
e 326 1048
e 326 1052
e 327 439
e 327 560
e 327 643
e 327 750
e 327 1009
e 327 1049
e 327 910
e 328 564
e 328 913
e 328 1056
e 329 613
e 329 914
e 329 980
e 329 1057
e 329 951
e 330 563
e 330 1058
e 330 1059
e 330 912
e 331 570
e 331 756
e 331 411
e 331 620
e 331 927
e 331 1020
e 331 1055
e 331 1063
e 331 812
e 331 902
e 331 1008
e 332 574
e 332 410
e 332 618
e 332 930
e 332 992
e 332 1057
e 332 1062
e 332 811
e 332 957
e 332 1007
e 333 571
e 333 1009
e 333 931
e 333 1058
e 334 453
e 334 766
e 334 1011
e 334 933
e 334 1024
e 334 1059
e 334 1074
e 335 418
e 335 456
e 335 656
e 335 769
e 335 906
e 335 1014
e 335 1025
e 335 1074
e 335 1078
e 335 934
e 336 396
e 336 605
e 336 799
e 336 891
e 336 1004
e 336 949
e 336 1037
e 336 1067
e 336 1068
e 336 793
e 337 463
e 337 773
e 337 421
e 337 1028
e 337 908
e 337 1061
e 337 1077
e 337 818
e 338 458
e 338 771
e 338 424
e 338 1063
e 338 821
e 338 1017
e 339 425
e 339 459
e 339 661
e 339 772
e 339 822
e 339 910
e 339 1018
e 339 1064
e 339 1078
e 339 1026
e 340 394
e 340 487
e 340 602
e 340 1045
e 340 1073
e 340 1075
e 340 799
e 340 953
e 341 628
e 341 746
e 341 430
e 341 936
e 341 1066
e 341 1020
e 342 629
e 342 912
e 342 1080
e 343 373
e 343 587
e 343 776
e 343 625
e 343 938
e 343 1002
e 343 965
e 343 1021
e 343 1069
e 343 1081
e 344 626
e 344 825
e 344 913
e 344 1082
e 345 466
e 345 588
e 345 777
e 345 939
e 345 1032
e 345 1072
e 345 1022
e 346 432
e 346 747
e 346 829
e 346 1023
e 347 669
e 347 642
e 347 942
e 347 921
e 347 1084
e 348 436
e 348 643
e 348 751
e 348 1025
e 348 943
e 348 1085
e 349 670
e 349 644
e 349 752
e 349 944
e 349 1087
e 349 926
e 349 1084
e 350 439
e 350 646
e 350 753
e 350 781
e 350 839
e 350 931
e 350 1026
e 350 1047
e 350 1080
e 350 1085
e 350 1088
e 350 945
e 351 592
e 351 946
e 351 1027
e 351 1081
e 352 471
e 352 785
e 352 437
e 352 645
e 352 947
e 352 1028
e 352 1048
e 352 1082
e 352 1086
e 352 837
e 352 929
e 353 441
e 353 648
e 353 787
e 353 840
e 353 933
e 353 1030
e 353 1050
e 353 1088
e 354 380
e 354 650
e 354 951
e 354 1007
e 354 1089
e 355 652
e 355 597
e 355 677
e 355 790
e 355 952
e 355 1083
e 355 1090
e 356 797
e 356 1054
e 356 1087
e 356 935
e 356 1091
e 356 1094
e 357 390
e 357 483
e 357 601
e 357 957
e 357 1015
e 357 1056
e 357 1089
e 357 990
e 358 391
e 358 1016
e 358 1057
e 358 937
e 358 991
e 359 451
e 359 802
e 359 1055
e 359 844
e 359 939
e 359 1094
e 360 601
e 360 482
e 360 1049
e 360 803
e 360 958
e 360 1058
e 360 1090
e 361 828
e 361 922
e 361 1093
e 361 823
e 361 1067
e 361 1092
e 362 513
e 362 830
e 362 923
e 362 1031
e 362 1093
e 362 824
e 362 1068
e 363 486
e 363 604
e 363 684
e 363 845
e 363 1059
e 363 805
e 364 456
e 364 661
e 364 774
e 364 846
e 364 943
e 364 1051
e 364 1106
e 365 428
e 365 633
e 365 979
e 365 1037
e 365 1097
e 365 973
e 365 1096
e 366 431
e 366 635
e 366 624
e 366 835
e 366 981
e 366 1035
e 366 1039
e 366 1098
e 366 1100
e 366 976
e 367 637
e 367 982
e 367 1043
e 367 1101
e 367 978
e 367 1037
e 368 639
e 368 630
e 368 983
e 368 1044
e 368 1101
e 368 979
e 369 640
e 369 631
e 369 984
e 369 1102
e 369 1039
e 370 490
e 370 608
e 370 807
e 370 1063
e 370 856
e 370 1053
e 370 1094
e 371 641
e 371 426
e 371 524
e 371 632
e 371 985
e 371 1045
e 371 981
e 371 1041
e 371 1079
e 371 1102
e 371 1104
e 372 466
e 372 668
e 372 780
e 372 1066
e 372 1099
e 372 861
e 372 950
e 372 1055
e 372 1109
e 373 465
e 373 666
e 373 967
e 373 1002
e 373 1057
e 374 498
e 374 615
e 374 698
e 374 812
e 374 968
e 374 1072
e 375 502
e 375 468
e 375 1077
e 375 1107
e 376 789
e 376 617
e 376 867
e 376 1108
e 376 1114
e 377 473
e 377 676
e 377 870
e 377 958
e 377 1064
e 377 1080
e 377 1110
e 377 1114
e 377 817
e 378 504
e 378 619
e 378 1040
e 378 1081
e 378 1111
e 379 505
e 379 470
e 379 675
e 379 820
e 379 1082
e 379 1112
e 379 1115
e 379 868
e 379 957
e 379 1061
e 380 623
e 380 680
e 380 980
e 380 1048
e 380 1118
e 380 1007
e 380 1069
e 381 507
e 381 621
e 381 712
e 381 475
e 381 682
e 381 981
e 381 1072
e 381 1113
e 381 1119
e 381 1122
e 381 801
e 382 713
e 382 1083
e 382 1120
e 383 509
e 383 714
e 383 829
e 383 986
e 383 1076
e 383 1084
e 383 1122
e 383 1125
e 383 804
e 383 961
e 384 512
e 384 477
e 384 1086
e 384 1115
e 384 874
e 384 962
e 384 1077
e 385 719
e 385 834
e 385 1087
e 385 963
e 385 1125
e 386 449
e 386 858
e 386 953
e 386 848
e 386 1092
e 387 542
e 387 859
e 387 1060
e 387 1093
e 387 851
e 388 482
e 388 684
e 388 806
e 388 877
e 388 964
e 388 1080
e 388 1128
e 389 422
e 389 521
e 389 626
e 389 837
e 389 991
e 389 1089
e 389 1117
e 390 627
e 390 992
e 390 1052
e 390 1118
e 390 1015
e 390 1081
e 391 483
e 391 685
e 391 878
e 391 966
e 391 1016
e 391 1082
e 392 460
e 392 665
e 392 862
e 392 955
e 392 1003
e 392 1067
e 392 1124
e 392 1126
e 392 1096
e 393 523
e 393 629
e 393 721
e 393 839
e 393 994
e 393 1090
e 393 1120
e 394 663
e 394 1071
e 394 1101
e 394 1129
e 394 1003
e 394 1068
e 395 636
e 395 689
e 395 996
e 395 1136
e 395 810
e 396 457
e 396 550
e 396 664
e 396 1073
e 396 1004
e 396 1070
e 396 1102
e 396 1131
e 396 1132
e 396 862
e 397 692
e 397 999
e 397 1136
e 397 1139
e 397 812
e 397 1084
e 398 693
e 398 726
e 398 813
e 398 972
e 398 1137
e 398 1140
e 399 814
e 399 1085
e 399 1128
e 400 492
e 400 1138
e 400 889
e 401 495
e 401 698
e 401 1000
e 401 1087
e 401 1095
e 401 1139
e 401 1141
e 401 815
e 401 974
e 402 738
e 402 498
e 402 706
e 402 1099
e 402 981
e 402 1133
e 402 1141
e 402 1144
e 402 816
e 402 894
e 403 533
e 403 651
e 403 703
e 403 1002
e 403 1062
e 403 1027
e 403 1089
e 403 1134
e 403 1143
e 404 532
e 404 649
e 404 1090
e 404 1135
e 404 1001
e 405 653
e 405 739
e 405 822
e 405 1137
e 405 1146
e 406 989
e 406 1146
e 406 846
e 406 1108
e 406 1140
e 406 1147
e 407 537
e 407 506
e 407 1109
e 407 1141
e 407 902
e 407 993
e 407 1094
e 408 903
e 408 994
e 408 850
e 408 1110
e 408 1142
e 408 1147
e 409 507
e 409 714
e 409 1099
e 409 1150
e 409 1155
e 409 834
e 409 905
e 409 996
e 410 659
e 410 1007
e 410 1081
e 410 1152
e 411 541
e 411 657
e 411 746
e 411 861
e 411 1008
e 411 1113
e 411 1145
e 411 1154
e 411 1159
e 412 510
e 412 907
e 412 1106
e 412 1164
e 413 515
e 413 545
e 413 662
e 413 910
e 413 865
e 413 1114
e 413 1147
e 414 721
e 414 840
e 414 1108
e 414 1148
e 414 1166
e 414 1012
e 415 487
e 415 691
e 415 890
e 415 981
e 415 1092
e 415 1124
e 415 1156
e 415 1157
e 415 883
e 416 488
e 416 891
e 416 1093
e 416 1126
e 416 1157
e 416 884
e 417 484
e 417 575
e 417 893
e 417 983
e 417 1031
e 417 887
e 417 1127
e 417 1158
e 418 549
e 418 751
e 418 1116
e 418 1171
e 418 867
e 418 1014
e 419 523
e 419 723
e 419 912
e 419 1001
e 419 1110
e 419 1166
e 419 1151
e 420 694
e 420 1034
e 420 1162
e 420 1164
e 421 462
e 421 868
e 421 1117
e 421 1167
e 422 667
e 422 1016
e 422 1086
e 422 1118
e 422 1153
e 422 1111
e 423 521
e 423 722
e 423 913
e 423 1002
e 423 1112
e 423 1169
e 424 553
e 424 668
e 424 1017
e 424 1119
e 424 1154
e 425 753
e 425 1171
e 425 870
e 425 1018
e 425 1120
e 426 700
e 426 1041
e 426 1101
e 426 1035
e 426 1097
e 426 1165
e 427 701
e 427 1043
e 427 1036
e 427 1098
e 428 702
e 428 694
e 428 1044
e 428 1102
e 428 895
e 428 1037
e 428 1100
e 429 554
e 429 871
e 429 1019
e 429 1122
e 429 1159
e 430 670
e 430 733
e 430 1020
e 430 1160
e 430 1175
e 430 921
e 430 1113
e 430 1173
e 431 489
e 431 696
e 431 1045
e 431 1101
e 431 1170
e 431 1039
e 432 674
e 432 756
e 432 737
e 432 1023
e 432 1175
e 432 1176
e 432 844
e 432 926
e 433 530
e 433 557
e 433 931
e 433 1114
e 433 1128
e 433 1166
e 434 469
e 434 875
e 434 1130
e 434 1168
e 435 559
e 435 528
e 435 1115
e 435 1169
e 435 929
e 436 561
e 436 677
e 436 766
e 436 845
e 436 1116
e 436 1025
e 436 1180
e 437 564
e 437 681
e 437 740
e 437 878
e 437 1028
e 437 1117
e 437 1134
e 437 1172
e 437 1178
e 438 562
e 438 678
e 438 1119
e 438 1173
e 438 849
e 439 563
e 439 679
e 439 769
e 439 1009
e 439 1120
e 439 1135
e 439 1174
e 439 1180
e 439 1181
e 439 877
e 439 1026
e 440 565
e 440 771
e 440 534
e 440 1029
e 440 1136
e 440 1175
e 440 856
e 440 1122
e 440 1184
e 441 566
e 441 772
e 441 1011
e 441 1137
e 441 1181
e 441 1185
e 441 879
e 441 1030
e 442 569
e 442 536
e 442 881
e 442 1033
e 442 1139
e 442 1176
e 442 860
e 442 935
e 442 1013
e 442 1125
e 442 1184
e 443 774
e 443 1014
e 443 1185
e 443 1186
e 443 882
e 443 1140
e 444 570
e 444 540
e 444 885
e 444 1038
e 444 1141
e 444 1177
e 444 939
e 444 1017
e 445 573
e 445 685
e 445 1040
e 445 1143
e 445 1178
e 446 479
e 446 574
e 446 538
e 446 1179
e 446 937
e 446 1015
e 446 1077
e 446 1130
e 447 539
e 447 745
e 447 938
e 447 1016
e 448 571
e 448 684
e 448 1042
e 448 1180
e 449 517
e 449 919
e 449 1003
e 449 1187
e 450 519
e 450 1004
e 450 1156
e 450 1188
e 450 915
e 451 780
e 451 894
e 451 1145
e 451 1183
e 451 1022
e 451 1195
e 452 520
e 452 725
e 452 922
e 452 1005
e 452 916
e 452 1157
e 452 1188
e 453 544
e 453 751
e 453 781
e 453 870
e 453 1024
e 453 1137
e 453 1050
e 453 1196
e 453 1199
e 454 513
e 454 924
e 454 1060
e 454 1189
e 454 1191
e 454 917
e 454 1121
e 454 1158
e 455 524
e 455 731
e 455 928
e 455 1006
e 455 1065
e 455 1124
e 455 1162
e 455 1194
e 456 549
e 456 753
e 456 787
e 456 872
e 456 1025
e 456 1140
e 456 1148
e 456 1199
e 456 1201
e 456 1051
e 457 735
e 457 1070
e 457 1129
e 457 1065
e 457 1126
e 457 1165
e 458 553
e 458 1150
e 458 1190
e 458 873
e 458 950
e 458 1141
e 458 1200
e 459 952
e 459 1026
e 459 1142
e 459 1201
e 459 899
e 459 1151
e 460 736
e 460 727
e 460 1010
e 460 1071
e 460 1131
e 460 1197
e 460 1198
e 460 928
e 460 1067
e 460 1127
e 461 607
e 461 731
e 461 1132
e 461 1198
e 461 1068
e 462 494
e 462 587
e 462 1115
e 462 1153
e 462 1027
e 463 901
e 463 1028
e 463 1202
e 463 951
e 464 792
e 464 554
e 464 1155
e 464 1029
e 464 1144
e 465 497
e 465 709
e 465 759
e 465 1057
e 465 1118
e 465 1089
e 466 707
e 466 764
e 466 797
e 466 905
e 466 1055
e 466 1160
e 466 1032
e 466 1145
e 466 1203
e 466 1204
e 467 560
e 467 958
e 467 1042
e 467 1147
e 467 1166
e 467 1201
e 467 907
e 468 501
e 468 591
e 468 711
e 468 908
e 468 1167
e 468 1205
e 469 558
e 469 909
e 469 1149
e 469 1169
e 469 1202
e 469 1206
e 469 957
e 469 1040
e 470 504
e 470 716
e 470 913
e 470 1061
e 470 1130
e 470 1172
e 470 1208
e 471 564
e 471 773
e 471 1210
e 471 960
e 471 1048
e 472 596
e 472 714
e 472 1063
e 472 1154
e 472 1173
e 472 1203
e 473 597
e 473 1049
e 473 1064
e 473 1174
e 473 1211
e 473 806
e 473 912
e 474 598
e 474 719
e 474 567
e 474 807
e 474 1175
e 474 1159
e 474 1204
e 474 892
e 474 961
e 475 599
e 475 720
e 475 810
e 475 921
e 475 1072
e 475 1164
e 475 1215
e 476 600
e 476 721
e 476 1074
e 477 601
e 477 722
e 477 929
e 477 1077
e 477 1178
e 477 1208
e 477 1167
e 478 512
e 478 572
e 478 930
e 478 1138
e 478 1179
e 478 1209
e 478 965
e 478 1107
e 478 1168
e 478 1214
e 479 573
e 479 1210
e 479 966
e 479 1052
e 479 1169
e 480 601
e 480 723
e 480 1171
e 480 814
e 480 931
e 480 1078
e 480 1180
e 480 1211
e 481 604
e 481 933
e 481 1181
e 482 786
e 482 726
e 482 971
e 482 1058
e 482 1174
e 482 1223
e 482 1080
e 482 1212
e 482 1225
e 483 730
e 483 782
e 483 1082
e 483 1182
e 483 1213
e 483 1056
e 483 1111
e 483 1172
e 483 1222
e 484 551
e 484 755
e 484 955
e 484 1157
e 484 1194
e 484 1217
e 485 552
e 485 624
e 485 956
e 485 1041
e 485 1093
e 485 1158
e 485 1218
e 486 789
e 486 734
e 486 903
e 486 972
e 486 1059
e 486 1225
e 486 817
e 487 758
e 487 631
e 487 1045
e 487 1197
e 487 1221
e 487 954
e 487 1092
e 487 1158
e 488 632
e 488 754
e 488 1046
e 488 1163
e 488 1093
e 488 1198
e 488 1221
e 488 1224
e 488 955
e 489 767
e 489 1101
e 489 1226
e 489 1096
e 490 588
e 490 936
e 490 1190
e 490 981
e 490 1063
e 490 1177
e 490 1219
e 490 1227
e 490 796
e 491 528
e 491 613
e 491 937
e 492 529
e 492 938
e 492 1149
e 492 1228
e 493 614
e 493 741
e 493 1086
e 493 1192
e 493 1178
e 493 1222
e 494 586
e 494 1062
e 494 1115
e 494 1179
e 495 829
e 495 940
e 495 1087
e 495 1229
e 495 1230
e 495 801
e 496 589
e 496 616
e 496 910
e 496 1181
e 496 1231
e 496 831
e 496 941
e 496 1088
e 496 1196
e 496 1225
e 497 743
e 497 1118
e 497 1182
e 498 834
e 498 942
e 498 1072
e 498 1183
e 498 1230
e 498 1232
e 498 804
e 499 590
e 499 617
e 499 911
e 499 989
e 499 1074
e 499 1185
e 499 1231
e 499 943
e 499 1199
e 499 1233
e 500 593
e 500 1200
e 500 1227
e 500 993
e 501 535
e 501 619
e 501 745
e 501 946
e 501 1161
e 501 1228
e 501 990
e 502 591
e 502 947
e 502 1202
e 502 991
e 502 1077
e 503 539
e 503 951
e 503 1168
e 503 1236
e 504 623
e 504 1169
e 504 1081
e 504 1130
e 505 809
e 505 998
e 505 1082
e 506 621
e 506 747
e 506 950
e 506 1094
e 506 1203
e 506 1230
e 506 1237
e 506 1195
e 507 599
e 507 1099
e 507 1239
e 507 1245
e 507 812
e 507 932
e 508 600
e 508 814
e 508 933
e 508 1199
e 509 1103
e 509 1245
e 509 1250
e 509 815
e 509 1084
e 510 601
e 510 934
e 510 1001
e 510 1085
e 510 1201
e 510 1106
e 510 1207
e 510 1235
e 511 546
e 511 626
e 511 957
e 511 1107
e 511 1208
e 511 1236
e 512 601
e 512 1210
e 512 1002
e 512 1086
e 512 1138
e 512 1202
e 513 579
e 513 981
e 513 1068
e 513 1121
e 513 1188
e 513 1241
e 513 1242
e 513 973
e 513 1217
e 514 581
e 514 791
e 514 982
e 514 1070
e 514 1189
e 514 1187
e 514 1218
e 514 1243
e 514 1244
e 514 976
e 515 629
e 515 958
e 515 1211
e 515 1238
e 516 582
e 516 983
e 516 1191
e 516 977
e 516 1244
e 517 575
e 517 984
e 517 1071
e 517 1246
e 517 978
e 517 1188
e 518 585
e 518 576
e 518 663
e 518 788
e 518 985
e 518 1193
e 518 1220
e 518 1246
e 518 1247
e 518 979
e 518 1121
e 519 577
e 519 1073
e 519 1189
e 519 1248
e 520 578
e 520 664
e 520 794
e 520 987
e 520 1075
e 520 981
e 520 1191
e 520 1221
e 520 1248
e 520 1249
e 521 638
e 521 761
e 521 960
e 521 1112
e 521 1179
e 521 1213
e 521 1089
e 521 1253
e 521 818
e 522 636
e 522 756
e 522 1109
e 522 1239
e 522 821
e 522 935
e 522 1203
e 523 757
e 523 822
e 523 1090
e 523 1255
e 523 846
e 523 959
e 523 1110
e 523 1212
e 523 1240
e 524 799
e 524 1079
e 524 1129
e 524 1197
e 524 1124
e 524 1226
e 524 1251
e 525 800
e 525 1198
e 525 1126
e 525 1251
e 525 793
e 526 611
e 526 1216
e 526 1250
e 526 1256
e 526 1091
e 527 615
e 527 1219
e 527 1252
e 527 1256
e 527 1008
e 527 1094
e 528 651
e 528 773
e 528 966
e 528 1115
e 528 1208
e 528 1222
e 528 1253
e 529 559
e 529 613
e 529 967
e 529 1149
e 529 1209
e 529 1254
e 529 1257
e 529 833
e 529 1007
e 530 649
e 530 772
e 530 1009
e 530 1211
e 530 1223
e 530 1255
e 530 964
e 530 1114
e 531 653
e 531 774
e 531 948
e 531 1011
e 531 865
e 531 969
e 531 1225
e 532 839
e 532 1212
e 533 1153
e 533 1213
e 533 837
e 534 654
e 534 779
e 534 1122
e 534 1215
e 534 1260
e 535 618
e 535 1257
e 535 1015
e 535 1161
e 535 1214
e 536 655
e 536 780
e 536 871
e 536 974
e 536 1125
e 536 1229
e 536 1264
e 536 1260
e 537 621
e 537 1258
e 537 1261
e 537 842
e 537 1020
e 537 1109
e 537 1219
e 538 573
e 538 659
e 538 783
e 538 1130
e 538 1167
e 539 574
e 539 622
e 539 980
e 539 1202
e 539 1262
e 539 843
e 539 1021
e 539 1111
e 539 1168
e 540 657
e 540 784
e 540 873
e 540 981
e 540 1230
e 540 1259
e 540 1264
e 540 1265
e 540 1022
e 541 1133
e 541 1266
e 541 844
e 541 1113
e 542 602
e 542 1004
e 542 1093
e 542 1241
e 542 1263
e 543 790
e 543 1135
e 543 1269
e 544 845
e 544 1137
e 544 1269
e 544 1272
e 544 877
e 545 629
e 545 1026
e 545 1114
e 545 1235
e 546 584
e 546 667
e 546 625
e 546 795
e 546 992
e 546 1138
e 546 1206
e 546 1262
e 546 1027
e 546 1228
e 547 626
e 547 1028
e 547 1115
e 547 1271
e 548 669
e 548 797
e 548 1139
e 548 1229
e 548 1274
e 548 849
e 548 961
e 549 1116
e 549 1272
e 549 1275
e 549 879
e 549 995
e 549 1140
e 550 828
e 550 1102
e 550 1156
e 550 1218
e 550 1267
e 551 609
e 551 694
e 551 830
e 551 1010
e 551 1104
e 551 1221
e 551 1268
e 551 823
e 551 1006
e 551 1157
e 551 1251
e 551 1267
e 552 607
e 552 696
e 552 832
e 552 1105
e 552 1163
e 552 1220
e 552 1270
e 552 1158
e 553 670
e 553 642
e 553 802
e 553 881
e 553 996
e 553 1141
e 553 1239
e 553 1266
e 553 1276
e 553 856
e 553 963
e 553 1032
e 553 1119
e 553 1230
e 553 1274
e 554 674
e 554 644
e 554 885
e 554 999
e 554 1144
e 554 1245
e 554 1276
e 554 1277
e 554 860
e 554 968
e 554 1122
e 554 1232
e 555 647
e 555 1000
e 555 1250
e 555 1277
e 555 1125
e 556 677
e 556 1234
e 556 1146
e 556 1272
e 556 1279
e 556 806
e 557 649
e 557 865
e 557 1047
e 557 1128
e 557 1235
e 558 592
e 558 681
e 558 650
e 558 809
e 558 1002
e 558 1149
e 558 1214
e 558 1236
e 558 1253
e 558 1273
e 558 1278
e 559 651
e 559 866
e 559 1048
e 560 652
e 560 679
e 560 1049
e 560 1238
e 560 1255
e 560 1275
e 560 1279
e 560 808
e 560 1001
e 560 1147
e 561 867
e 561 972
e 561 1148
e 561 1280
e 562 1150
e 562 1239
e 562 1282
e 562 974
e 563 870
e 563 975
e 563 1135
e 563 1240
e 563 1280
e 563 1283
e 563 1151
e 564 1281
e 564 868
e 564 1134
e 565 654
e 565 1155
e 565 981
e 565 1136
e 565 1245
e 565 1282
e 565 1284
e 565 871
e 566 872
e 566 1137
e 566 1283
e 566 899
e 567 815
e 567 902
e 567 1159
e 568 685
e 568 1161
e 568 1278
e 569 655
e 569 1285
e 569 873
e 569 986
e 569 1054
e 569 1139
e 569 1250
e 569 1284
e 570 657
e 570 1258
e 570 1285
e 570 1055
e 570 1141
e 570 1252
e 571 660
e 571 686
e 571 876
e 571 989
e 571 1058
e 571 1255
e 571 1166
e 571 1280
e 571 817
e 572 601
e 572 819
e 572 1007
e 572 1168
e 572 1228
e 572 1288
e 573 688
e 573 658
e 573 820
e 573 1169
e 573 1281
e 573 874
e 573 1056
e 573 1143
e 573 1253
e 574 659
e 574 875
e 574 1057
e 574 1202
e 574 1254
e 575 634
e 575 854
e 575 1039
e 575 1127
e 575 1188
e 575 1243
e 575 1290
e 575 1289
e 576 635
e 576 1041
e 576 1244
e 576 1290
e 577 624
e 577 855
e 577 1043
e 577 1129
e 577 1189
e 577 1241
e 577 1292
e 577 1034
e 578 637
e 578 857
e 578 1044
e 578 1191
e 578 1246
e 578 1035
e 578 1187
e 578 1242
e 578 1292
e 578 1293
e 578 847
e 579 640
e 579 630
e 579 727
e 579 859
e 579 1045
e 579 1132
e 579 1193
e 579 1248
e 579 1294
e 579 1295
e 579 848
e 579 1037
e 579 1188
e 579 1244
e 579 1267
e 580 641
e 580 731
e 580 1046
e 580 1249
e 580 1268
e 580 1295
e 580 1296
e 580 851
e 581 632
e 581 1189
e 581 1246
e 581 1297
e 581 1039
e 582 633
e 582 732
e 582 854
e 582 1041
e 582 1191
e 582 1247
e 582 1270
e 582 1297
e 583 704
e 583 833
e 583 1015
e 583 1205
e 583 1288
e 584 666
e 584 1062
e 584 1206
e 584 1257
e 585 635
e 585 1299
e 585 855
e 585 1044
e 585 1193
e 585 1249
e 586 614
e 586 709
e 586 838
e 586 1179
e 586 1152
e 586 1208
e 587 672
e 587 1153
e 587 1209
e 587 1300
e 587 889
e 587 1069
e 588 707
e 588 673
e 588 836
e 588 1020
e 588 1177
e 588 1266
e 588 1072
e 588 1154
e 588 1259
e 588 1298
e 588 1301
e 588 892
e 589 710
e 589 840
e 589 931
e 589 1024
e 589 1181
e 589 1269
e 590 713
e 590 933
e 590 1025
e 590 1185
e 590 1272
e 590 1304
e 591 619
e 591 716
e 591 1028
e 591 1273
e 591 1303
e 591 1167
e 592 718
e 592 680
e 592 1262
e 592 1300
e 592 897
e 592 1081
e 592 1214
e 593 714
e 593 682
e 593 842
e 593 1264
e 593 1274
e 593 1301
e 594 1171
e 594 1186
e 594 1275
e 594 1304
e 594 934
e 594 1026
e 595 719
e 595 1029
e 595 1276
e 595 1265
e 596 683
e 596 1190
e 596 1266
e 596 1302
e 596 1305
e 596 1308
e 596 902
e 596 1173
e 597 903
e 597 1083
e 597 1174
e 597 1306
e 598 936
e 598 1175
e 598 1308
e 598 904
e 598 1008
e 598 1084
e 599 940
e 599 1310
e 599 1312
e 600 724
e 600 906
e 600 1011
e 600 1272
e 600 1314
e 600 846
e 600 941
e 600 1199
e 601 627
e 601 690
e 601 730
e 601 687
e 601 726
e 601 853
e 601 910
e 601 1014
e 601 1048
e 601 1090
e 601 1180
e 601 1202
e 601 1257
e 601 1275
e 601 1281
e 601 1307
e 601 1314
e 601 850
e 601 908
e 601 943
e 601 1047
e 601 1089
e 601 1178
e 601 1201
e 601 1228
e 601 1273
e 601 1280
e 601 1306
e 601 1313
e 601 1318
e 602 663
e 602 1073
e 602 1163
e 602 1294
e 602 1311
e 602 1067
e 603 692
e 603 1276
e 603 1282
e 603 1308
e 603 1017
e 604 693
e 604 734
e 604 911
e 604 1018
e 604 1181
e 604 1050
e 604 1283
e 604 1318
e 604 945
e 605 754
e 605 1075
e 605 1295
e 605 1311
e 605 880
e 605 1068
e 606 738
e 606 698
e 606 1277
e 606 1284
e 606 1319
e 606 1019
e 606 1091
e 606 1184
e 607 671
e 607 891
e 607 1079
e 607 1220
e 607 1267
e 607 1315
e 607 1317
e 607 883
e 607 1217
e 608 706
e 608 1285
e 608 1319
e 608 1094
e 609 890
e 609 1079
e 609 1221
e 609 1270
e 610 739
e 610 1279
e 610 1314
e 610 865
e 611 1054
e 611 1316
e 611 1320
e 611 1322
e 612 931
e 612 1025
e 612 1280
e 612 1207
e 613 651
e 613 869
e 613 1057
e 613 1209
e 613 1262
e 613 1236
e 613 1321
e 614 743
e 614 708
e 614 1210
e 614 1192
e 614 1281
e 614 929
e 615 1055
e 615 1298
e 615 1322
e 615 1195
e 616 710
e 616 933
e 616 1026
e 616 1196
e 616 1283
e 617 713
e 617 934
e 617 1030
e 617 1108
e 617 1199
e 618 749
e 618 875
e 618 1062
e 618 1214
e 618 1321
e 618 1288
e 619 715
e 619 1271
e 619 1300
e 619 1111
e 620 747
e 620 1063
e 620 1301
e 620 1322
e 620 1291
e 621 720
e 621 1066
e 621 1219
e 621 1302
e 621 1324
e 621 1325
e 621 939
e 621 1113
e 621 1203
e 621 1298
e 622 659
e 622 1069
e 622 1273
e 623 1326
e 623 938
e 623 1254
e 624 696
e 624 917
e 624 1098
e 624 1241
e 624 1289
e 624 1327
e 625 666
e 625 760
e 625 889
e 625 1081
e 625 1228
e 625 1278
e 626 667
e 626 761
e 626 728
e 626 1082
e 626 1307
e 626 1117
e 626 1208
e 626 1335
e 627 729
e 627 1326
e 627 946
e 627 1118
e 627 1257
e 627 1300
e 628 756
e 628 733
e 628 885
e 628 1227
e 628 1305
e 628 1325
e 628 1119
e 628 1301
e 629 757
e 629 948
e 629 1120
e 629 1211
e 629 1337
e 629 886
e 629 1080
e 629 1306
e 630 699
e 630 920
e 630 1101
e 630 1244
e 630 1292
e 630 1328
e 630 1329
e 630 1287
e 631 1197
e 631 1330
e 631 1289
e 632 701
e 632 922
e 632 1102
e 632 1198
e 632 1246
e 632 1294
e 632 1241
e 632 1290
e 632 1315
e 632 1330
e 632 1331
e 632 915
e 632 1096
e 633 702
e 633 923
e 633 1104
e 633 1247
e 633 1295
e 633 916
e 633 1097
e 633 1242
e 633 1317
e 633 1331
e 633 793
e 634 694
e 634 924
e 634 1248
e 634 1332
e 634 1098
e 634 1243
e 634 1292
e 635 695
e 635 925
e 635 1105
e 635 1249
e 635 1297
e 635 1332
e 635 1333
e 635 917
e 635 1100
e 635 1244
e 635 1293
e 636 950
e 636 1054
e 636 1302
e 637 697
e 637 1101
e 637 1246
e 637 1295
e 637 1334
e 637 1336
e 637 919
e 638 1213
e 638 1338
e 638 951
e 639 1299
e 639 798
e 639 920
e 639 1247
e 639 1296
e 639 1336
e 640 699
e 640 1102
e 640 1248
e 640 1297
e 641 700
e 641 799
e 641 922
e 641 1104
e 641 1249
e 642 894
e 642 974
e 642 1230
e 642 1310
e 642 1341
e 642 1339
e 643 769
e 643 1231
e 644 770
e 644 981
e 644 1084
e 644 1232
e 644 1312
e 644 1341
e 644 1343
e 644 1215
e 645 773
e 645 740
e 645 898
e 645 1086
e 645 1303
e 645 1313
e 645 1335
e 646 772
e 646 1304
e 646 1314
e 646 1337
e 646 896
e 646 1085
e 646 1233
e 647 986
e 647 1087
e 647 1316
e 647 1343
e 647 1346
e 648 774
e 648 988
e 648 1088
e 648 1318
e 649 744
e 649 958
e 649 1135
e 649 1223
e 649 1306
e 649 1344
e 649 899
e 649 1235
e 650 680
e 650 775
e 650 900
e 650 1089
e 650 1236
e 650 1288
e 651 742
e 651 901
e 651 1262
e 651 1307
e 651 1338
e 651 1345
e 651 957
e 651 1134
e 651 1222
e 652 778
e 652 1340
e 652 903
e 652 989
e 652 1090
e 652 1238
e 653 1064
e 653 1137
e 653 1225
e 654 996
e 654 1245
e 654 1072
e 654 1312
e 654 1347
e 654 1348
e 654 961
e 655 999
e 655 1095
e 655 1250
e 655 1323
e 655 1350
e 655 963
e 655 1076
e 655 1229
e 655 1316
e 655 1348
e 656 751
e 656 787
e 656 1078
e 656 1318
e 657 752
e 657 1000
e 657 1099
e 657 1252
e 657 1324
e 657 1350
e 657 1354
e 657 968
e 657 1145
e 657 1230
e 658 913
e 658 1253
e 659 688
e 659 914
e 659 1254
e 659 1300
e 659 1349
e 659 965
e 659 1273
e 660 790
e 660 1255
e 660 912
e 661 753
e 661 1146
e 661 1231
e 662 1147
e 662 1233
e 662 1106
e 663 1129
e 663 1220
e 663 1328
e 663 1351
e 663 1123
e 663 1309
e 664 953
e 664 1131
e 664 1221
e 664 1124
e 664 1330
e 664 1352
e 665 736
e 665 1132
e 665 1224
e 665 1311
e 665 1353
e 665 823
e 665 949
e 665 1126
e 665 1263
e 665 1331
e 665 1352
e 666 705
e 666 759
e 666 930
e 666 1257
e 666 1349
e 666 1152
e 666 1278
e 666 1321
e 667 760
e 667 1326
e 667 1153
e 668 764
e 668 802
e 668 927
e 668 1109
e 668 1256
e 668 1325
e 668 1350
e 668 1154
e 668 1237
e 668 1322
e 668 1357
e 669 1323
e 669 1359
e 669 974
e 669 1084
e 670 1258
e 670 981
e 670 1087
e 670 1160
e 670 1239
e 670 1324
e 670 1359
e 670 1362
e 671 1356
e 671 954
e 671 1267
e 672 709
e 672 1307
e 672 1360
e 673 1113
e 673 1259
e 673 1164
e 673 1361
e 674 770
e 674 1363
e 674 986
e 674 1245
e 674 1362
e 675 809
e 675 1115
e 675 1335
e 675 1355
e 675 1167
e 676 1171
e 676 1337
e 676 808
e 676 1114
e 677 989
e 677 1358
e 677 1364
e 678 777
e 678 936
e 678 1261
e 678 1325
e 678 1359
e 678 993
e 678 1091
e 678 1173
e 679 778
e 679 994
e 679 1174
e 679 1255
e 679 1364
e 679 1012
e 680 717
e 680 938
e 680 1118
e 680 1262
e 680 1313
e 680 1360
e 680 1365
e 680 990
e 680 1288
e 681 718
e 681 775
e 681 1338
e 681 1366
e 681 991
e 681 1172
e 681 1253
e 682 812
e 682 939
e 682 1013
e 682 1119
e 682 1264
e 682 1339
e 682 1361
e 683 942
e 683 1266
e 683 1367
e 683 1368
e 684 786
e 684 1180
e 684 1337
e 684 1128
e 684 1344
e 684 1364
e 684 817
e 684 945
e 685 782
e 685 820
e 685 947
e 685 1271
e 685 1345
e 685 1366
e 685 1178
e 685 1335
e 686 790
e 686 1001
e 686 1108
e 687 729
e 687 825
e 687 951
e 687 1134
e 687 1273
e 687 1321
e 687 1371
e 688 1002
e 688 1182
e 688 1300
e 688 1338
e 689 950
e 689 1274
e 689 1367
e 689 1339
e 690 792
e 690 1340
e 690 1374
e 690 952
e 690 1025
e 690 1135
e 690 1275
e 690 1380
e 691 758
e 691 1163
e 691 1249
e 691 1369
e 691 1370
e 691 848
e 691 1157
e 691 1352
e 692 829
e 692 1136
e 692 1276
e 692 1341
e 692 1347
e 692 1368
e 692 1382
e 693 1137
e 693 1380
e 693 1026
e 694 981
e 694 1251
e 694 1292
e 694 1330
e 694 1373
e 694 1162
e 694 1286
e 694 1327
e 695 767
e 695 1293
e 695 1331
e 695 1373
e 695 1375
e 695 973
e 695 1287
e 696 982
e 696 1294
e 696 1328
e 696 1376
e 696 1289
e 697 768
e 697 983
e 697 1170
e 697 1295
e 697 1332
e 697 1290
e 697 1329
e 697 1376
e 697 1377
e 697 976
e 698 834
e 698 1029
e 698 1139
e 698 1277
e 698 1343
e 698 1348
e 698 1382
e 698 1383
e 698 801
e 698 1260
e 699 762
e 699 985
e 699 1297
e 699 1334
e 699 1378
e 699 1379
e 699 978
e 699 1165
e 699 1292
e 699 1331
e 700 1336
e 700 1379
e 700 979
e 700 1293
e 701 763
e 701 987
e 701 1294
e 701 1332
e 701 1381
e 702 765
e 702 1299
e 702 981
e 702 1295
e 702 1333
e 702 1356
e 702 1381
e 702 862
e 703 837
e 703 957
e 703 1143
e 703 1278
e 703 1371
e 704 741
e 704 838
e 704 1349
e 704 1303
e 705 1192
e 705 1345
e 706 836
e 706 1033
e 706 1141
e 706 1350
e 706 1264
e 706 1346
e 706 1372
e 706 1383
e 706 804
e 706 1195
e 707 1266
e 707 1384
e 707 1008
e 708 841
e 708 960
e 708 1281
e 709 743
e 709 1326
e 709 1307
e 709 1385
e 709 1007
e 710 1011
e 710 1120
e 710 1269
e 710 1386
e 710 1388
e 710 1047
e 710 1283
e 711 745
e 711 1149
e 711 1355
e 712 1284
e 712 1389
e 712 810
e 712 1013
e 712 1122
e 712 1348
e 713 1014
e 713 1272
e 713 1388
e 713 1050
e 713 1148
e 713 1358
e 713 1390
e 714 1150
e 714 1285
e 714 1350
e 714 1359
e 714 1384
e 714 1389
e 714 1393
e 714 812
e 714 1017
e 714 1125
e 714 1203
e 714 1274
e 715 749
e 715 1153
e 715 1335
e 715 1360
e 715 1391
e 716 1392
e 716 1273
e 717 967
e 717 1349
e 717 1385
e 717 811
e 717 1015
e 717 1313
e 718 1016
e 719 1155
e 719 1276
e 719 1354
e 719 1362
e 719 1393
e 719 815
e 719 1019
e 719 1204
e 720 970
e 720 1054
e 720 1160
e 720 1298
e 720 1387
e 720 1395
e 720 1022
e 721 1388
e 721 1397
e 721 846
e 722 853
e 722 1169
e 722 1366
e 722 1392
e 722 1208
e 722 1278
e 722 1355
e 722 818
e 723 822
e 723 1211
e 723 1279
e 723 1397
e 723 850
e 723 1166
e 723 1364
e 723 1390
e 724 1025
e 724 1137
e 724 1358
e 725 794
e 725 1370
e 725 1396
e 725 880
e 726 1026
e 726 1140
e 726 1212
e 726 1280
e 726 1403
e 727 1004
e 727 1197
e 727 1267
e 727 1398
e 728 760
e 728 1172
e 729 980
e 729 1300
e 729 1345
e 729 1394
e 729 1027
e 729 1321
e 729 1360
e 730 825
e 730 1028
e 730 1213
e 730 1281
e 730 1402
e 731 799
e 731 1005
e 731 1198
e 731 1268
e 731 1352
e 731 1373
e 731 1398
e 731 1399
e 731 883
e 731 1194
e 731 1309
e 732 1270
e 732 1311
e 732 1351
e 732 1376
e 732 793
e 733 861
e 733 981
e 733 1173
e 733 1301
e 733 1367
e 733 1395
e 733 1361
e 734 1030
e 734 1142
e 734 1283
e 734 1403
e 735 1353
e 735 1379
e 735 1400
e 735 888
e 735 1003
e 736 798
e 736 890
e 736 1004
e 736 1198
e 736 1311
e 736 1381
e 736 1401
e 737 864
e 737 986
e 737 1063
e 737 1175
e 737 1368
e 737 1215
e 738 1363
e 738 1404
e 738 834
e 738 1033
e 738 1144
e 738 1216
e 738 1284
e 739 839
e 739 1042
e 739 1146
e 739 1223
e 739 1364
e 740 868
e 740 991
e 740 1178
e 740 1303
e 740 1371
e 741 1366
e 741 1402
e 741 837
e 741 1040
e 741 1222
e 742 776
e 742 998
e 742 1182
e 742 1307
e 742 1349
e 742 1407
e 743 1326
e 743 1408
e 743 841
e 743 1048
e 744 1049
e 744 997
e 744 1306
e 745 843
e 745 1228
e 746 1000
e 746 1405
e 746 1409
e 746 1159
e 746 1229
e 747 1190
e 747 1384
e 747 1406
e 747 1409
e 747 844
e 747 1053
e 747 1230
e 747 1301
e 747 1372
e 748 878
e 748 1002
e 748 1192
e 748 1313
e 748 1407
e 748 1371
e 749 785
e 749 1385
e 749 1335
e 750 1374
e 750 1314
e 750 877
e 750 1001
e 751 845
e 751 1171
e 751 1380
e 751 1386
e 751 879
e 751 1085
e 751 1196
e 751 1318
e 752 1087
e 752 1387
e 752 1413
e 753 1234
e 753 1388
e 753 882
e 753 1088
e 753 1199
e 754 828
e 754 1031
e 754 1221
e 754 1295
e 754 1369
e 754 1398
e 754 1411
e 754 1412
e 754 915
e 754 1217
e 755 830
e 755 1224
e 755 1296
e 755 1370
e 755 916
e 755 1399
e 755 1412
e 756 861
e 756 1063
e 756 1176
e 756 1239
e 756 1305
e 756 1384
e 756 1418
e 757 1064
e 757 1240
e 757 1306
e 758 1415
e 758 827
e 758 1221
e 758 1401
e 759 1007
e 759 1321
e 759 1365
e 760 1366
e 760 1394
e 761 1307
e 761 1061
e 762 835
e 762 1041
e 762 1331
e 762 1376
e 762 1327
e 763 1044
e 763 1332
e 763 1378
e 763 1328
e 763 1373
e 763 1416
e 763 1034
e 764 894
e 764 1008
e 764 1091
e 764 1203
e 764 1322
e 764 1395
e 764 1413
e 765 1333
e 765 1379
e 765 1035
e 765 1329
e 765 1375
e 765 1416
e 766 1180
e 766 1386
e 767 1046
e 767 1336
e 767 1381
e 767 1417
e 767 1419
e 767 928
e 767 1037
e 767 1331
e 767 1377
e 768 1332
e 768 1379
e 768 1420
e 768 1039
e 769 867
e 769 1074
e 769 1181
e 769 1388
e 769 1423
e 769 1012
e 770 1099
e 770 1422
e 770 1425
e 770 1076
e 770 1183
e 770 1312
e 771 1389
e 771 1418
e 771 1184
e 772 870
e 772 1078
e 772 1185
e 772 1255
e 772 1314
e 772 1390
e 772 1423
e 772 899
e 772 1207
e 773 901
e 773 1210
e 773 1392
e 773 1402
e 773 1424
e 773 868
e 773 1077
e 773 1253
e 773 1313
e 774 872
e 774 1186
e 774 1318
e 774 1106
e 774 1403
e 775 1213
e 776 1326
e 776 1349
e 776 1394
e 776 1081
e 777 905
e 777 1020
e 777 1325
e 777 1395
e 777 1421
e 778 1108
e 778 1212
e 779 1023
e 779 1109
e 779 1422
e 779 1427
e 779 1195
e 780 1216
e 780 1405
e 780 1425
e 780 1429
e 780 1320
e 780 1427
e 781 877
e 781 1085
e 781 1199
e 782 913
e 782 1028
e 782 1222
e 782 1335
e 782 1407
e 783 820
e 783 914
e 783 1321
e 783 1355
e 784 1219
e 784 1406
e 784 1426
e 784 1429
e 784 1259
e 784 1322
e 785 1408
e 785 878
e 785 1086
e 785 1402
e 786 1223
e 786 1337
e 786 912
e 786 1026
e 787 879
e 787 1088
e 787 1201
e 787 1403
e 788 855
e 788 1246
e 788 1428
e 789 1030
e 789 1114
e 789 1225
e 790 1090
e 791 1414
e 791 1433
e 791 851
e 791 1244
e 792 885
e 792 1116
e 792 1261
e 792 1340
e 792 1404
e 792 1408
e 792 1435
e 793 862
e 793 1068
e 793 1251
e 793 1317
e 793 1351
e 793 1398
e 794 1415
e 794 1435
e 794 857
e 794 953
e 794 1060
e 794 1249
e 795 1262
e 795 889
e 796 927
e 796 1038
e 796 1227
e 796 1409
e 796 1429
e 796 1264
e 796 892
e 797 1342
e 797 1405
e 797 1430
e 797 1091
e 797 1204
e 797 1439
e 798 1400
e 798 1065
e 798 1351
e 798 1399
e 798 1416
e 798 1436
e 799 1075
e 799 1401
e 799 1417
e 799 1437
e 799 1438
e 799 954
e 799 1067
e 799 1251
e 799 1352
e 800 1353
e 800 1419
e 800 1438
e 800 955
e 800 1068
e 801 932
e 801 1122
e 801 1229
e 801 1343
e 801 1410
e 801 1440
e 802 1434
e 802 1266
e 802 1325
e 802 1406
e 802 894
e 802 1094
e 802 1439
e 803 1047
e 803 1344
e 804 1125
e 804 1230
e 804 1346
e 804 1413
e 804 1440
e 805 1211
e 805 1269
e 805 1050
e 805 1128
e 806 1272
e 806 1051
e 806 1442
e 807 936
e 807 1409
e 807 1418
e 807 902
e 807 1274
e 807 1439
e 808 903
e 808 1275
e 808 1337
e 808 1235
e 808 1442
e 809 900
e 809 1107
e 809 1273
e 809 1335
e 809 1443
e 810 940
e 810 1054
e 810 1136
e 810 1348
e 810 1215
e 810 1410
e 810 1444
e 811 1057
e 811 1349
e 811 1371
e 812 942
e 812 1055
e 812 1139
e 812 1239
e 812 1350
e 812 1413
e 812 1421
e 812 1339
e 812 1441
e 812 1444
e 812 1445
e 813 1340
e 813 1140
e 813 1240
e 814 906
e 814 943
e 815 944
e 815 1141
e 815 1245
e 815 1354
e 815 1422
e 815 1341
e 815 1445
e 815 1446
e 816 1144
e 816 1250
e 816 1425
e 816 1343
e 816 1446
e 816 1448
e 817 912
e 817 1114
e 817 1280
e 817 1344
e 818 852
e 818 951
e 818 1061
e 818 1253
e 818 1355
e 819 853
e 819 1254
e 820 913
e 820 1115
e 820 1281
e 820 1345
e 821 950
e 821 1063
e 821 1357
e 821 1444
e 822 952
e 822 1064
e 822 1146
e 822 1255
e 823 890
e 823 1093
e 823 1267
e 823 1331
e 823 1411
e 823 1447
e 824 891
e 824 1268
e 824 1412
e 824 973
e 824 1447
e 825 1117
e 826 893
e 826 1270
e 826 1333
e 826 1370
e 826 1414
e 826 884
e 826 976
e 826 1449
e 827 1336
e 827 887
e 827 978
e 827 1412
e 827 1436
e 828 1369
e 828 1414
e 828 1437
e 828 888
e 828 1092
e 828 1267
e 828 1450
e 829 1150
e 829 1362
e 829 1422
e 829 926
e 829 1122
e 829 1230
e 829 1347
e 829 1454
e 829 1456
e 830 1415
e 830 981
e 830 1093
e 830 1268
e 830 1370
e 830 1438
e 830 1450
e 831 931
e 831 1231
e 831 1423
e 832 891
e 832 982
e 832 1270
e 833 866
e 833 1257
e 833 1288
e 834 1155
e 834 1363
e 834 1425
e 834 1430
e 834 932
e 834 1125
e 834 1232
e 834 1348
e 834 1456
e 834 1457
e 835 1105
e 835 1381
e 835 895
e 835 1098
e 835 1376
e 835 1416
e 836 1258
e 836 1434
e 836 1350
e 836 1426
e 836 1298
e 836 1457
e 837 960
e 837 1082
e 837 1366
e 837 1391
e 838 1349
e 838 1392
e 838 1130
e 838 1458
e 839 1234
e 839 959
e 839 1080
e 839 1364
e 839 1451
e 840 1238
e 840 1166
e 840 1455
e 841 1394
e 841 1134
e 842 1261
e 842 1429
e 842 939
e 842 1301
e 842 1357
e 842 1439
e 842 1457
e 843 875
e 843 1262
e 844 970
e 844 1176
e 844 1266
e 844 1372
e 844 1361
e 844 1441
e 844 1460
e 845 972
e 845 1180
e 845 1269
e 845 1380
e 846 1146
e 846 1468
e 847 919
e 847 1121
e 847 1292
e 847 1351
e 848 1294
e 848 1352
e 848 1286
e 848 1461
e 849 974
e 849 1091
e 849 1382
e 850 952
e 850 1147
e 850 1306
e 850 1364
e 850 1468
e 851 922
e 851 1295
e 851 1353
e 851 1431
e 851 1287
e 851 1447
e 851 1461
e 851 1463
e 852 980
e 852 1424
e 852 1365
e 853 1149
e 853 1307
e 853 1366
e 853 951
e 853 1469
e 854 924
e 854 1297
e 854 1396
e 854 1433
e 854 916
e 854 1290
e 854 1428
e 854 1465
e 854 1449
e 854 1464
e 855 1431
e 855 917
e 855 1292
e 855 1466
e 856 981
e 856 1094
e 856 1184
e 856 1274
e 856 1383
e 856 1444
e 856 1460
e 856 1440
e 857 1299
e 857 1432
e 857 918
e 857 1003
e 857 1121
e 857 1293
e 857 1466
e 858 1294
e 858 1433
e 858 919
e 858 1467
e 859 920
e 859 1004
e 859 1295
e 859 1396
e 859 1467
e 859 1450
e 860 986
e 860 1276
e 860 1445
e 861 1099
e 861 1384
e 861 1154
e 861 1310
e 861 1367
e 861 1462
e 861 1473
e 861 1441
e 861 1472
e 862 1132
e 862 1356
e 862 1400
e 862 1437
e 862 1124
e 862 1398
e 862 1471
e 862 1452
e 862 1470
e 863 1438
e 863 1006
e 863 1126
e 863 1399
e 863 1471
e 863 1453
e 864 1103
e 864 1190
e 864 1159
e 864 1259
e 864 1312
e 864 1368
e 864 1473
e 865 958
e 865 1314
e 865 1106
e 865 1442
e 865 1468
e 866 957
e 866 1161
e 866 1313
e 866 1443
e 866 1469
e 867 1388
e 867 995
e 867 1108
e 867 1196
e 868 998
e 868 1112
e 868 1281
e 868 1392
e 868 1167
e 868 1371
e 868 1474
e 869 901
e 869 1168
e 870 1171
e 870 1374
e 870 997
e 870 1110
e 870 1199
e 870 1280
e 870 1390
e 870 1451
e 871 999
e 871 1200
e 871 1282
e 871 1393
e 871 1264
e 871 961
e 871 1454
e 871 1473
e 871 1445
e 871 1475
e 872 1380
e 872 1201
e 872 1283
e 872 1455
e 873 1000
e 873 1284
e 873 963
e 873 1265
e 873 1320
e 873 1382
e 873 1456
e 873 1476
e 873 1446
e 873 1475
e 874 1002
e 874 1115
e 874 1474
e 875 909
e 875 965
e 875 1321
e 875 1458
e 876 1397
e 876 1001
e 876 1114
e 877 971
e 877 1180
e 877 1272
e 877 1451
e 878 1402
e 878 1178
e 879 972
e 879 1181
e 879 1275
e 879 1386
e 879 1207
e 879 1403
e 879 1455
e 879 1482
e 880 953
e 880 1311
e 880 1370
e 880 1309
e 880 1461
e 881 1276
e 881 974
e 881 1184
e 881 1456
e 882 975
e 882 1185
e 882 1388
e 882 1482
e 883 954
e 883 1157
e 883 1315
e 883 1373
e 883 1480
e 884 955
e 884 1317
e 884 1375
e 884 1447
e 884 1480
e 885 1404
e 885 981
e 885 1277
e 885 1325
e 885 1389
e 885 1459
e 885 1478
e 885 1457
e 886 1186
e 886 1390
e 887 956
e 887 1377
e 887 1412
e 887 1449
e 888 1379
e 888 1414
e 888 1034
e 888 1447
e 889 930
e 889 1300
e 889 1391
e 889 1443
e 890 1163
e 890 1381
e 890 1036
e 890 1156
e 890 1315
e 890 1411
e 890 1483
e 890 1449
e 890 1470
e 891 1037
e 891 1157
e 891 1317
e 891 1412
e 891 1450
e 891 1471
e 891 1483
e 892 1008
e 892 1301
e 892 1460
e 892 1479
e 893 1415
e 893 1414
e 893 955
e 893 1039
e 893 1158
e 894 1133
e 894 1216
e 894 1302
e 894 1406
e 894 1395
e 894 1195
e 894 1462
e 894 1481
e 894 1484
e 895 1416
e 895 1162
e 895 1452
e 896 994
e 896 1337
e 896 1397
e 896 1468
e 897 1016
e 897 1138
e 897 990
e 898 991
e 898 1335
e 898 1469
e 899 997
e 899 1201
e 900 938
e 900 1307
e 900 1485
e 901 998
e 901 1202
e 901 1338
e 901 1402
e 902 1020
e 902 1141
e 902 1305
e 902 1409
e 902 1339
e 902 1460
e 902 1472
e 902 1484
e 903 1340
e 903 1142
e 903 1306
e 903 1486
e 904 1023
e 904 1144
e 904 1227
e 904 1308
e 904 1341
e 904 1291
e 904 1473
e 905 1203
e 905 1462
e 906 1025
e 906 1146
e 907 1001
e 907 1344
e 907 1468
e 908 946
e 908 1028
e 908 1149
e 908 1313
e 908 1205
e 908 1474
e 908 1485
e 908 1487
e 909 1002
e 909 1206
e 909 1345
e 909 1469
e 910 1231
e 910 1314
e 910 1026
e 910 1147
e 910 1486
e 911 1030
e 911 1233
e 911 1318
e 912 1211
e 912 1151
e 912 1493
e 913 1208
e 913 1407
e 913 1458
e 914 1209
e 915 1188
e 915 1330
e 915 1398
e 916 981
e 916 1331
e 916 1399
e 916 1428
e 916 1461
e 916 1480
e 917 982
e 917 1191
e 917 1332
e 917 1431
e 917 973
e 917 1327
e 917 1464
e 917 1488
e 917 1489
e 918 983
e 918 1333
e 918 1432
e 918 1465
e 918 1489
e 919 984
e 919 1193
e 919 1334
e 919 1400
e 919 1433
e 919 1328
e 919 976
e 919 1490
e 919 1461
e 920 985
e 920 1336
e 920 977
e 920 1065
e 920 1187
e 920 1329
e 920 1428
e 920 1466
e 920 1490
e 920 1463
e 921 1160
e 921 1421
e 921 1495
e 922 987
e 922 1431
e 922 979
e 922 1067
e 922 1188
e 922 1331
e 922 1467
e 922 1465
e 922 1483
e 922 1491
e 922 1492
e 923 1432
e 923 1068
e 923 1492
e 924 981
e 924 1189
e 924 1332
e 924 1433
e 924 1494
e 924 1466
e 925 1435
e 925 1070
e 925 1191
e 925 1333
e 925 1494
e 926 1239
e 926 1422
e 926 1215
e 926 1495
e 926 1496
e 927 1350
e 927 1409
e 927 1008
e 927 1478
e 928 1198
e 928 1436
e 928 1470
e 929 1048
e 929 1169
e 929 1424
e 929 1474
e 930 1349
e 930 1007
e 930 1214
e 930 1443
e 931 1009
e 931 1047
e 931 1166
e 931 1423
e 932 1245
e 932 1323
e 932 1425
e 932 1410
e 932 1496
e 932 1497
e 933 1011
e 933 1304
e 933 1050
e 933 1493
e 934 1014
e 934 1051
e 934 1482
e 935 1054
e 935 1176
e 935 1427
e 935 1496
e 935 1499
e 935 1477
e 936 1020
e 936 1227
e 936 1359
e 936 1418
e 936 1478
e 937 966
e 937 1057
e 937 1179
e 938 967
e 938 1326
e 938 1021
e 938 1228
e 938 1360
e 938 1469
e 938 1498
e 939 1055
e 939 1177
e 939 1325
e 939 1429
e 939 1022
e 939 1361
e 939 1479
e 939 1484
e 939 1497
e 939 1499
e 940 1430
e 940 1229
e 940 1312
e 940 1500
e 941 1024
e 941 1314
e 942 1434
e 942 1230
e 942 1316
e 942 1421
e 942 1481
e 942 1500
e 942 1501
e 943 1025
e 943 1231
e 943 1318
e 943 1482
e 944 1258
e 944 1422
e 944 1232
e 944 1501
e 945 1026
e 945 1233
e 945 1364
e 945 1423
e 946 1027
e 946 1365
e 946 1498
e 947 1028
e 947 1366
e 947 1424
e 948 1064
e 948 1186
e 948 1337
e 948 1486
e 949 1004
e 949 1352
e 949 1412
e 949 1502
e 950 1066
e 950 1190
e 950 1032
e 950 1237
e 950 1320
e 950 1367
e 950 1439
e 950 1500
e 950 1484
e 951 980
e 951 1338
e 951 1236
e 952 1238
e 952 1504
e 953 1415
e 953 1003
e 953 1092
e 953 1352
e 953 1491
e 953 1503
e 954 1221
e 954 1417
e 954 1505
e 955 1010
e 955 1224
e 955 1356
e 955 1419
e 955 1096
e 955 1217
e 955 1483
e 955 1447
e 955 1505
e 956 1420
e 956 1006
e 956 1098
e 956 1218
e 956 1450
e 956 1449
e 957 992
e 957 1082
e 957 1202
e 957 1345
e 957 1371
e 957 1443
e 957 1485
e 958 1049
e 958 1374
e 958 1080
e 958 1201
e 958 1344
e 958 1486
e 958 1504
e 958 1442
e 959 1255
e 960 1253
e 961 1084
e 961 1204
e 961 1274
e 961 1347
e 961 1445
e 961 1495
e 962 1086
e 962 1206
e 962 1487
e 963 1087
e 963 1276
e 963 1348
e 963 1446
e 963 1496
e 963 1506
e 964 1058
e 964 1207
e 965 1002
e 965 1209
e 965 1349
e 966 1210
e 966 1056
e 967 1057
e 967 1257
e 967 1385
e 967 1469
e 968 1277
e 968 1350
e 968 1448
e 968 1497
e 968 1506
e 968 1440
e 969 1059
e 969 1337
e 969 1386
e 969 1493
e 970 1259
e 970 1387
e 970 1507
e 970 1441
e 971 1212
e 971 1451
e 972 1340
e 972 1280
e 972 1512
e 972 1455
e 973 1037
e 973 1242
e 973 1373
e 974 1095
e 974 1216
e 974 1282
e 974 1341
e 974 1260
e 974 1456
e 974 1496
e 974 1513
e 975 1283
e 975 1358
e 975 1512
e 976 1039
e 976 1244
e 976 1376
e 976 1461
e 976 1488
e 977 1041
e 977 1377
e 977 1463
e 977 1489
e 978 1043
e 978 1246
e 978 1378
e 978 1436
e 978 1464
e 978 1508
e 979 1044
e 979 1247
e 979 1379
e 979 1123
e 979 1465
e 979 1490
e 979 1508
e 980 1262
e 980 1394
e 980 1069
e 981 1045
e 981 1099
e 981 1219
e 981 1249
e 981 1284
e 981 1359
e 981 1381
e 981 1438
e 981 1035
e 981 1072
e 981 1124
e 981 1241
e 981 1264
e 981 1343
e 981 1373
e 981 1395
e 981 1457
e 981 1466
e 981 1491
e 981 1500
e 981 1507
e 981 1510
e 981 1514
e 981 1444
e 981 1461
e 981 1489
e 981 1497
e 981 1505
e 981 1509
e 981 1513
e 982 1037
e 982 1243
e 982 1376
e 982 1467
e 982 1490
e 982 1511
e 982 1464
e 983 1127
e 983 1244
e 983 1377
e 983 1494
e 983 1465
e 983 1511
e 984 1378
e 984 1039
e 984 1491
e 985 1041
e 985 1129
e 985 1246
e 985 1379
e 985 1466
e 985 1492
e 986 1103
e 986 1285
e 986 1362
e 986 1076
e 986 1265
e 986 1346
e 986 1501
e 986 1514
e 986 1445
e 987 1044
e 987 1131
e 987 1248
e 987 1381
e 987 1467
e 987 1494
e 988 1078
e 988 1397
e 988 1106
e 989 1108
e 989 1512
e 990 1015
e 990 1111
e 990 1228
e 990 1365
e 990 1487
e 991 1016
e 991 1112
e 991 1366
e 992 1081
e 992 1498
e 993 1109
e 993 1227
e 993 1499
e 993 1513
e 994 1110
e 994 1364
e 994 1504
e 995 1272
e 995 1515
e 996 1274
e 996 1348
e 996 1459
e 996 1500
e 997 1083
e 997 1275
e 997 1451
e 997 1515
e 998 1273
e 998 1516
e 999 1276
e 999 1350
e 999 1084
e 999 1454
e 999 1501
e 1000 1087
e 1000 1277
e 1000 1354
e 1000 1405
e 1000 1456
e 1001 1090
e 1001 1279
e 1001 1235
e 1001 1504
e 1001 1468
e 1001 1515
e 1002 1089
e 1002 1278
e 1002 1407
e 1002 1469
e 1002 1516
e 1003 1071
e 1003 1400
e 1003 1502
e 1003 1508
e 1004 1073
e 1004 1401
e 1004 1065
e 1004 1156
e 1004 1398
e 1004 1450
e 1004 1517
e 1004 1509
e 1005 1075
e 1005 1157
e 1005 1263
e 1005 1399
e 1005 1503
e 1005 1510
e 1005 1517
e 1006 1079
e 1006 1268
e 1006 1162
e 1006 1453
e 1006 1505
e 1006 1480
e 1007 1048
e 1007 1254
e 1007 1385
e 1007 1288
e 1007 1498
e 1007 1485
e 1007 1518
e 1008 1133
e 1008 1252
e 1008 1384
e 1008 1413
e 1008 1291
e 1008 1507
e 1008 1460
e 1008 1519
e 1009 1135
e 1009 1255
e 1010 1267
e 1010 1483
e 1011 1137
e 1011 1314
e 1011 1386
e 1012 1108
e 1013 1139
e 1013 1475
e 1014 1388
e 1014 1140
e 1014 1318
e 1014 1512
e 1015 1052
e 1015 1257
e 1015 1518
e 1015 1487
e 1016 1111
e 1017 1141
e 1017 1256
e 1017 1389
e 1017 1476
e 1017 1506
e 1017 1513
e 1017 1519
e 1018 1142
e 1018 1390
e 1019 1144
e 1019 1319
e 1019 1393
e 1019 1514
e 1020 1258
e 1020 1113
e 1020 1301
e 1020 1421
e 1020 1478
e 1020 1507
e 1020 1521
e 1020 1472
e 1021 1057
e 1021 1394
e 1022 1145
e 1022 1259
e 1022 1320
e 1022 1395
e 1022 1479
e 1022 1520
e 1023 1422
e 1023 1372
e 1023 1473
e 1024 1374
e 1025 1116
e 1025 1380
e 1025 1148
e 1025 1512
e 1025 1523
e 1025 1482
e 1026 1120
e 1026 1304
e 1026 1151
e 1026 1523
e 1026 1515
e 1027 1062
e 1027 1153
e 1027 1262
e 1028 1402
e 1028 1117
e 1028 1303
e 1028 1516
e 1028 1474
e 1028 1522
e 1029 1155
e 1029 1122
e 1029 1383
e 1029 1514
e 1030 1403
e 1031 1415
e 1031 1188
e 1031 1412
e 1031 1517
e 1031 1524
e 1032 1160
e 1032 1266
e 1032 1484
e 1033 1125
e 1033 1427
e 1033 1475
e 1034 1292
e 1034 1488
e 1034 1525
e 1035 1101
e 1035 1293
e 1035 1416
e 1035 1489
e 1035 1508
e 1035 1525
e 1036 1294
e 1036 1470
e 1036 1526
e 1037 1102
e 1037 1295
e 1037 1417
e 1037 1286
e 1037 1471
e 1037 1490
e 1037 1509
e 1037 1526
e 1037 1527
e 1038 1404
e 1038 1429
e 1038 1476
e 1039 1297
e 1039 1096
e 1039 1289
e 1039 1491
e 1039 1528
e 1039 1488
e 1039 1508
e 1040 1169
e 1040 1271
e 1040 1522
e 1041 1105
e 1041 1420
e 1041 1097
e 1041 1290
e 1041 1492
e 1041 1511
e 1041 1528
e 1041 1489
e 1042 1166
e 1042 1523
e 1043 1098
e 1043 1529
e 1043 1509
e 1044 1299
e 1044 1100
e 1044 1292
e 1044 1416
e 1044 1494
e 1044 1490
e 1044 1510
e 1044 1529
e 1044 1530
e 1045 1101
e 1045 1197
e 1045 1294
e 1045 1417
e 1045 1531
e 1045 1491
e 1045 1511
e 1046 1198
e 1046 1295
e 1046 1419
e 1046 1531
e 1046 1492
e 1047 1135
e 1047 1314
e 1047 1388
e 1047 1515
e 1048 1408
e 1048 1134
e 1048 1313
e 1048 1498
e 1048 1516
e 1048 1532
e 1049 1174
e 1049 1275
e 1049 1486
e 1050 1137
e 1050 1318
e 1050 1390
e 1051 1140
e 1051 1482
e 1051 1534
e 1052 1143
e 1052 1532
e 1053 1177
e 1053 1409
e 1053 1519
e 1053 1440
e 1054 1320
e 1054 1533
e 1054 1535
e 1055 1342
e 1055 1145
e 1055 1322
e 1055 1535
e 1055 1441
e 1055 1484
e 1056 1182
e 1056 1281
e 1057 1321
e 1058 1280
e 1059 1283
e 1059 1344
e 1059 1493
e 1060 1431
e 1060 1121
e 1060 1524
e 1061 1485
e 1062 1152
e 1062 1518
e 1063 1190
e 1063 1285
e 1063 1418
e 1063 1154
e 1063 1521
e 1063 1535
e 1063 1444
e 1063 1519
e 1064 1486
e 1065 1129
e 1065 1436
e 1065 1525
e 1066 1160
e 1066 1325
e 1066 1405
e 1067 1131
e 1067 1311
e 1067 1437
e 1067 1123
e 1067 1483
e 1067 1526
e 1067 1536
e 1068 1132
e 1068 1438
e 1068 1217
e 1068 1309
e 1068 1517
e 1068 1502
e 1068 1527
e 1068 1536
e 1069 1516
e 1070 1126
e 1070 1218
e 1070 1503
e 1070 1528
e 1071 1127
e 1071 1436
e 1071 1517
e 1071 1529
e 1071 1537
e 1072 1298
e 1072 1348
e 1072 1421
e 1072 1164
e 1072 1497
e 1072 1539
e 1072 1520
e 1072 1538
e 1073 1129
e 1073 1437
e 1074 1199
e 1075 1221
e 1075 1311
e 1075 1438
e 1075 1531
e 1075 1503
e 1076 1350
e 1076 1422
e 1076 1539
e 1077 1202
e 1077 1424
e 1077 1167
e 1077 1522
e 1077 1487
e 1078 1171
e 1078 1201
e 1078 1423
e 1078 1523
e 1079 1226
e 1079 1315
e 1079 1505
e 1080 1174
e 1080 1337
e 1080 1451
e 1081 1300
e 1081 1498
e 1082 1172
e 1082 1335
e 1083 1340
e 1083 1358
e 1084 1359
e 1084 1341
e 1084 1413
e 1084 1501
e 1084 1495
e 1084 1540
e 1084 1541
e 1085 1180
e 1085 1207
e 1085 1523
e 1086 1210
e 1086 1178
e 1086 1532
e 1086 1522
e 1087 1362
e 1087 1430
e 1087 1343
e 1087 1533
e 1087 1542
e 1087 1496
e 1087 1541
e 1088 1181
e 1089 1118
e 1089 1213
e 1089 1307
e 1089 1518
e 1090 1212
e 1090 1306
e 1090 1504
e 1091 1216
e 1091 1541
e 1091 1546
e 1092 1491
e 1092 1543
e 1093 1163
e 1093 1241
e 1093 1450
e 1093 1492
e 1093 1524
e 1093 1447
e 1093 1536
e 1093 1543
e 1094 1219
e 1094 1195
e 1094 1439
e 1094 1535
e 1094 1542
e 1094 1460
e 1094 1499
e 1094 1546
e 1095 1422
e 1095 1348
e 1095 1533
e 1096 1331
e 1096 1452
e 1096 1508
e 1096 1526
e 1097 1453
e 1097 1527
e 1098 1332
e 1098 1162
e 1098 1509
e 1098 1544
e 1098 1525
e 1099 1350
e 1099 1425
e 1099 1548
e 1099 1462
e 1099 1500
e 1100 1170
e 1100 1333
e 1100 1327
e 1100 1510
e 1100 1528
e 1100 1544
e 1101 1336
e 1101 1328
e 1101 1511
e 1101 1529
e 1101 1508
e 1101 1527
e 1101 1545
e 1102 1165
e 1102 1330
e 1102 1528
e 1102 1547
e 1102 1452
e 1102 1509
e 1103 1354
e 1103 1426
e 1103 1548
e 1103 1501
e 1104 1251
e 1104 1331
e 1104 1531
e 1104 1510
e 1104 1547
e 1104 1453
e 1105 1332
e 1105 1511
e 1105 1530
e 1106 1201
e 1106 1468
e 1106 1534
e 1107 1138
e 1107 1443
e 1109 1203
e 1109 1357
e 1109 1427
e 1109 1535
e 1109 1472
e 1110 1504
e 1111 1522
e 1112 1355
e 1113 1324
e 1113 1361
e 1113 1507
e 1114 1211
e 1114 1235
e 1115 1208
e 1115 1474
e 1116 1386
e 1116 1512
e 1117 1153
e 1118 1326
e 1118 1365
e 1118 1532
e 1118 1518
e 1119 1239
e 1119 1325
e 1119 1513
e 1119 1538
e 1120 1388
e 1120 1240
e 1120 1451
e 1121 1193
e 1121 1466
e 1122 1245
e 1122 1389
e 1122 1215
e 1122 1454
e 1122 1514
e 1122 1539
e 1122 1540
e 1122 1440
e 1123 1351
e 1124 1197
e 1124 1352
e 1124 1470
e 1124 1505
e 1124 1549
e 1125 1250
e 1125 1393
e 1125 1456
e 1125 1541
e 1125 1477
e 1126 1198
e 1126 1353
e 1126 1471
e 1126 1536
e 1126 1549
e 1127 1194
e 1127 1517
e 1127 1544
e 1128 1223
e 1129 1536
e 1129 1545
e 1130 1169
e 1130 1254
e 1130 1458
e 1131 1470
e 1132 1267
e 1132 1352
e 1132 1471
e 1132 1517
e 1132 1547
e 1133 1372
e 1133 1481
e 1133 1507
e 1134 1338
e 1134 1371
e 1134 1516
e 1135 1374
e 1135 1515
e 1136 1444
e 1136 1540
e 1137 1380
e 1138 1228
e 1139 1342
e 1139 1229
e 1139 1382
e 1139 1550
e 1139 1445
e 1139 1541
e 1140 1403
e 1140 1512
e 1140 1551
e 1141 1258
e 1141 1230
e 1141 1383
e 1141 1459
e 1141 1542
e 1141 1550
e 1141 1446
e 1141 1484
e 1141 1513
e 1142 1551
e 1143 1345
e 1144 1404
e 1144 1232
e 1144 1548
e 1144 1514
e 1144 1448
e 1145 1405
e 1145 1462
e 1146 1234
e 1147 1238
e 1147 1486
e 1147 1468
e 1147 1551
e 1148 1388
e 1148 1455
e 1149 1236
e 1149 1469
e 1149 1485
e 1150 1239
e 1150 1389
e 1150 1456
e 1151 1240
e 1151 1390
e 1151 1515
e 1152 1192
e 1152 1349
e 1152 1518
e 1153 1391
e 1154 1266
e 1154 1350
e 1154 1472
e 1154 1519
e 1155 1245
e 1155 1393
e 1155 1548
e 1155 1457
e 1156 1369
e 1156 1509
e 1157 1221
e 1157 1370
e 1157 1286
e 1157 1483
e 1157 1510
e 1157 1543
e 1157 1549
e 1157 1552
e 1157 1480
e 1158 1217
e 1158 1289
e 1158 1511
e 1158 1524
e 1159 1354
e 1159 1409
e 1159 1473
e 1160 1395
e 1161 1271
e 1161 1487
e 1162 1226
e 1162 1373
e 1162 1525
e 1162 1553
e 1163 1220
e 1163 1294
e 1163 1369
e 1163 1483
e 1163 1524
e 1164 1410
e 1164 1520
e 1165 1379
e 1165 1528
e 1165 1545
e 1165 1525
e 1166 1255
e 1166 1397
e 1167 1273
e 1167 1355
e 1167 1474
e 1168 1202
e 1169 1253
e 1170 1376
e 1170 1531
e 1170 1528
e 1171 1275
e 1173 1359
e 1173 1521
e 1175 1362
e 1175 1418
e 1175 1460
e 1175 1495
e 1176 1363
e 1176 1554
e 1176 1496
e 1177 1259
e 1177 1478
e 1177 1554
e 1177 1497
e 1177 1519
e 1178 1281
e 1178 1366
e 1178 1522
e 1179 1210
e 1179 1518
e 1180 1280
e 1180 1364
e 1180 1523
e 1181 1283
e 1181 1423
e 1182 1407
e 1183 1425
e 1183 1481
e 1183 1520
e 1184 1284
e 1184 1260
e 1185 1482
e 1186 1551
e 1187 1246
e 1187 1490
e 1188 1248
e 1188 1396
e 1188 1491
e 1188 1517
e 1188 1555
e 1189 1241
e 1189 1488
e 1190 1266
e 1190 1409
e 1190 1500
e 1190 1521
e 1191 1242
e 1191 1494
e 1191 1489
e 1192 1532
e 1193 1244
e 1193 1490
e 1194 1251
e 1194 1399
e 1194 1549
e 1194 1553
e 1195 1298
e 1195 1372
e 1195 1427
e 1195 1484
e 1196 1269
e 1197 1401
e 1198 1315
e 1198 1398
e 1198 1537
e 1198 1536
e 1199 1272
e 1200 1274
e 1200 1550
e 1200 1475
e 1201 1275
e 1201 1504
e 1201 1523
e 1201 1551
e 1201 1534
e 1202 1273
e 1202 1522
e 1203 1302
e 1203 1384
e 1203 1535
e 1203 1556
e 1203 1477
e 1204 1439
e 1204 1557
e 1204 1479
e 1205 1303
e 1205 1487
e 1205 1534
e 1206 1278
e 1207 1280
e 1207 1423
e 1207 1482
e 1208 1307
e 1208 1392
e 1210 1281
e 1210 1424
e 1210 1532
e 1211 1306
e 1211 1390
e 1214 1288
e 1215 1312
e 1215 1444
e 1215 1495
e 1215 1539
e 1216 1427
e 1216 1560
e 1217 1267
e 1217 1412
e 1217 1505
e 1217 1527
e 1218 1414
e 1218 1528
e 1218 1543
e 1218 1558
e 1219 1429
e 1219 1298
e 1219 1507
e 1219 1535
e 1219 1560
e 1220 1328
e 1220 1530
e 1220 1552
e 1221 1415
e 1221 1330
e 1221 1411
e 1221 1531
e 1221 1559
e 1221 1505
e 1221 1543
e 1222 1402
e 1224 1331
e 1224 1412
e 1224 1559
e 1225 1403
e 1225 1486
e 1226 1417
e 1226 1545
e 1227 1404
e 1227 1301
e 1227 1554
e 1227 1560
e 1227 1513
e 1228 1257
e 1228 1498
e 1229 1323
e 1229 1405
e 1229 1454
e 1229 1541
e 1230 1324
e 1230 1406
e 1230 1456
e 1230 1500
e 1230 1542
e 1230 1556
e 1230 1440
e 1230 1538
e 1232 1457
e 1232 1501
e 1232 1557
e 1232 1539
e 1233 1304
e 1235 1306
e 1235 1442
e 1235 1515
e 1236 1262
e 1237 1325
e 1237 1409
e 1237 1546
e 1238 1504
e 1238 1561
e 1239 1310
e 1239 1444
e 1239 1496
e 1239 1556
e 1241 1294
e 1241 1431
e 1241 1509
e 1241 1536
e 1241 1562
e 1242 1295
e 1242 1432
e 1242 1510
e 1242 1555
e 1242 1562
e 1243 1433
e 1243 1286
e 1244 1297
e 1244 1287
e 1244 1511
e 1244 1558
e 1245 1312
e 1245 1459
e 1245 1548
e 1245 1557
e 1245 1565
e 1245 1445
e 1245 1497
e 1245 1540
e 1246 1290
e 1246 1537
e 1246 1508
e 1246 1555
e 1247 1299
e 1247 1351
e 1247 1428
e 1248 1292
e 1248 1563
e 1248 1509
e 1249 1435
e 1249 1431
e 1249 1293
e 1249 1352
e 1249 1564
e 1249 1510
e 1249 1559
e 1249 1563
e 1250 1316
e 1250 1565
e 1250 1446
e 1250 1541
e 1251 1438
e 1251 1549
e 1252 1542
e 1252 1448
e 1253 1338
e 1256 1322
e 1256 1560
e 1256 1519
e 1256 1546
e 1257 1321
e 1257 1518
e 1258 1324
e 1258 1457
e 1259 1426
e 1259 1507
e 1259 1566
e 1259 1520
e 1260 1348
e 1260 1427
e 1261 1325
e 1261 1521
e 1261 1560
e 1263 1311
e 1263 1517
e 1263 1562
e 1264 1350
e 1264 1429
e 1264 1475
e 1264 1513
e 1264 1566
e 1265 1354
e 1265 1476
e 1265 1514
e 1266 1434
e 1266 1567
e 1266 1460
e 1267 1450
e 1267 1547
e 1267 1558
e 1268 1373
e 1268 1559
e 1268 1447
e 1268 1552
e 1270 1317
e 1270 1376
e 1270 1449
e 1271 1335
e 1271 1522
e 1272 1358
e 1273 1300
e 1273 1516
e 1274 1359
e 1274 1339
e 1274 1439
e 1274 1550
e 1275 1340
e 1275 1561
e 1275 1482
e 1275 1515
e 1275 1551
e 1276 1362
e 1276 1341
e 1276 1567
e 1276 1506
e 1277 1363
e 1277 1343
e 1277 1565
e 1278 1366
e 1278 1443
e 1279 1364
e 1279 1442
e 1280 1512
e 1281 1474
e 1282 1347
e 1282 1513
e 1284 1348
e 1284 1514
e 1284 1565
e 1284 1475
e 1285 1350
e 1285 1476
e 1285 1535
e 1285 1550
e 1286 1330
e 1286 1461
e 1286 1526
e 1286 1549
e 1287 1331
e 1287 1463
e 1287 1527
e 1287 1562
e 1288 1313
e 1288 1518
e 1289 1464
e 1290 1332
e 1290 1465
e 1290 1528
e 1290 1555
e 1291 1372
e 1291 1448
e 1291 1519
e 1291 1566
e 1292 1334
e 1292 1327
e 1292 1466
e 1292 1529
e 1292 1562
e 1292 1568
e 1292 1525
e 1293 1336
e 1293 1530
e 1293 1568
e 1294 1328
e 1294 1467
e 1294 1526
e 1295 1329
e 1295 1398
e 1295 1531
e 1295 1563
e 1295 1461
e 1295 1527
e 1295 1555
e 1296 1399
e 1296 1564
e 1296 1463
e 1297 1331
e 1297 1528
e 1297 1464
e 1298 1479
e 1298 1569
e 1299 1333
e 1299 1400
e 1299 1564
e 1299 1466
e 1299 1530
e 1300 1360
e 1301 1384
e 1301 1361
e 1301 1457
e 1301 1521
e 1301 1554
e 1301 1566
e 1301 1569
e 1301 1538
e 1302 1484
e 1303 1392
e 1303 1522
e 1304 1390
e 1304 1523
e 1305 1367
e 1305 1459
e 1306 1486
e 1307 1326
e 1307 1485
e 1308 1368
e 1308 1567
e 1308 1519
e 1308 1540
e 1309 1352
e 1309 1536
e 1309 1552
e 1310 1462
e 1310 1556
e 1311 1351
e 1311 1411
e 1311 1536
e 1312 1500
e 1312 1557
e 1312 1571
e 1312 1520
e 1313 1402
e 1313 1371
e 1313 1469
e 1313 1532
e 1313 1570
e 1313 1487
e 1314 1374
e 1314 1468
e 1315 1483
e 1316 1501
e 1316 1533
e 1316 1571
e 1317 1356
e 1317 1480
e 1318 1380
e 1318 1403
e 1319 1404
e 1319 1383
e 1319 1546
e 1320 1405
e 1320 1571
e 1321 1345
e 1322 1406
e 1322 1535
e 1322 1569
e 1323 1572
e 1323 1496
e 1324 1387
e 1324 1572
e 1324 1497
e 1324 1556
e 1325 1395
e 1325 1478
e 1325 1560
e 1325 1572
e 1325 1499
e 1325 1569
e 1326 1394
e 1326 1498
e 1327 1376
e 1327 1489
e 1327 1544
e 1327 1562
e 1328 1378
e 1328 1490
e 1328 1545
e 1329 1379
e 1329 1568
e 1330 1491
e 1330 1573
e 1331 1381
e 1331 1492
e 1331 1547
e 1331 1562
e 1331 1573
e 1332 1373
e 1332 1494
e 1332 1563
e 1332 1574
e 1332 1488
e 1332 1544
e 1332 1568
e 1333 1375
e 1333 1564
e 1333 1574
e 1333 1489
e 1334 1376
e 1334 1545
e 1336 1377
e 1336 1436
e 1336 1490
e 1339 1421
e 1339 1484
e 1340 1512
e 1340 1561
e 1341 1422
e 1341 1513
e 1341 1540
e 1342 1405
e 1343 1425
e 1343 1514
e 1343 1541
e 1343 1571
e 1345 1407
e 1346 1426
e 1346 1542
e 1347 1538
e 1348 1430
e 1348 1410
e 1348 1565
e 1348 1539
e 1348 1571
e 1348 1576
e 1350 1434
e 1350 1413
e 1350 1572
e 1350 1506
e 1350 1576
e 1351 1400
e 1352 1401
e 1352 1503
e 1352 1559
e 1352 1575
e 1352 1549
e 1352 1573
e 1353 1575
e 1353 1447
e 1353 1502
e 1354 1548
e 1356 1452
e 1356 1505
e 1357 1439
e 1357 1576
e 1358 1512
e 1359 1421
e 1359 1572
e 1359 1513
e 1359 1541
e 1360 1385
e 1361 1441
e 1361 1497
e 1361 1566
e 1362 1422
e 1362 1514
e 1362 1542
e 1363 1425
e 1363 1577
e 1363 1565
e 1365 1498
e 1365 1570
e 1367 1500
e 1368 1501
e 1368 1521
e 1368 1567
e 1369 1563
e 1370 1415
e 1370 1564
e 1370 1575
e 1370 1461
e 1370 1552
e 1372 1566
e 1373 1417
e 1373 1510
e 1373 1568
e 1373 1573
e 1373 1578
e 1373 1553
e 1374 1451
e 1374 1504
e 1375 1419
e 1375 1578
e 1376 1511
e 1377 1420
e 1377 1574
e 1378 1573
e 1379 1508
e 1379 1568
e 1380 1523
e 1380 1455
e 1381 1416
e 1381 1574
e 1381 1470
e 1381 1509
e 1382 1456
e 1383 1457
e 1383 1550
e 1383 1576
e 1383 1440
e 1384 1441
e 1384 1519
e 1384 1556
e 1385 1408
e 1385 1518
e 1387 1533
e 1387 1520
e 1389 1459
e 1389 1444
e 1389 1576
e 1393 1445
e 1395 1462
e 1395 1507
e 1395 1569
e 1396 1428
e 1396 1555
e 1397 1468
e 1398 1437
e 1398 1517
e 1399 1438
e 1399 1575
e 1399 1578
e 1399 1480
e 1400 1575
e 1401 1436
e 1402 1522
e 1403 1455
e 1403 1551
e 1404 1577
e 1404 1457
e 1404 1560
e 1406 1569
e 1407 1516
e 1408 1532
e 1409 1478
e 1409 1460
e 1410 1540
e 1410 1571
e 1411 1524
e 1412 1450
e 1412 1559
e 1413 1481
e 1413 1541
e 1413 1556
e 1414 1447
e 1414 1488
e 1414 1558
e 1415 1491
e 1415 1524
e 1415 1559
e 1416 1530
e 1416 1574
e 1416 1578
e 1416 1525
e 1417 1531
e 1417 1526
e 1417 1573
e 1418 1472
e 1419 1527
e 1420 1528
e 1420 1574
e 1420 1453
e 1421 1572
e 1421 1538
e 1422 1539
e 1424 1474
e 1424 1570
e 1425 1548
e 1425 1579
e 1425 1571
e 1426 1579
e 1427 1477
e 1428 1466
e 1429 1560
e 1429 1579
e 1429 1479
e 1429 1566
e 1430 1557
e 1430 1541
e 1431 1467
e 1431 1563
e 1431 1562
e 1432 1564
e 1432 1502
e 1433 1461
e 1434 1481
e 1434 1542
e 1434 1572
e 1435 1564
e 1435 1503
e 1436 1537
e 1438 1575
e 1438 1505
e 1438 1536
e 1439 1484
e 1439 1546
e 1440 1497
e 1442 1486
e 1442 1534
e 1443 1485
e 1444 1500
e 1444 1535
e 1444 1576
e 1445 1501
e 1445 1550
e 1446 1565
e 1447 1483
e 1448 1579
e 1449 1574
e 1449 1480
e 1450 1509
e 1450 1543
e 1452 1547
e 1453 1578
e 1454 1495
e 1455 1561
e 1456 1496
e 1457 1577
e 1457 1579
e 1457 1497
e 1457 1569
e 1457 1576
e 1459 1500
e 1459 1550
e 1459 1565
e 1460 1507
e 1460 1542
e 1461 1491
e 1461 1575
e 1463 1492
e 1465 1494
e 1466 1489
e 1466 1568
e 1467 1490
e 1468 1504
e 1471 1549
e 1473 1548
e 1473 1566
e 1474 1516
e 1476 1506
e 1478 1507
e 1478 1554
e 1478 1572
e 1479 1569
e 1479 1580
e 1480 1505
e 1480 1552
e 1480 1578
e 1482 1512
e 1483 1526
e 1485 1498
e 1486 1551
e 1487 1522
e 1487 1570
e 1489 1511
e 1489 1574
e 1491 1508
e 1491 1573
e 1492 1536
e 1492 1555
e 1494 1510
e 1494 1574
e 1496 1533
e 1497 1565
e 1497 1572
e 1497 1579
e 1497 1520
e 1497 1580
e 1499 1535
e 1499 1554
e 1500 1571
e 1502 1517
e 1502 1575
e 1503 1575
e 1503 1543
e 1505 1559
e 1506 1542
e 1506 1576
e 1507 1566
e 1508 1529
e 1509 1563
e 1509 1525
e 1510 1531
e 1510 1564
e 1510 1549
e 1510 1562
e 1510 1578
e 1510 1581
e 1511 1527
e 1513 1560
e 1513 1538
e 1514 1548
e 1514 1539
e 1518 1532
e 1520 1571
e 1520 1580
e 1525 1545
e 1525 1568
e 1527 1547
e 1529 1544
e 1530 1568
e 1530 1581
e 1532 1570
e 1533 1571
e 1534 1551
e 1538 1556
e 1538 1569
e 1539 1557
e 1539 1576
e 1544 1574
e 1544 1553
e 1546 1560
e 1547 1573
e 1548 1557
e 1548 1579
e 1549 1575
e 1551 1561
e 1552 1559
e 1552 1581
e 1553 1578
e 1553 1580
e 1554 1577
e 1554 1566
e 1555 1563
e 1557 1580
e 1559 1573
e 1560 1569
e 1561 1570
e 1563 1568
e 1564 1575
e 1564 1581
e 1565 1571
e 1566 1579
e 1574 1578
e 1577 1579
e 1577 1581
e 1578 1581
e 1579 1580
